minimize
obj: 10 g_1,1_ + 10 g_1,2_ + 10 g_1,3_ + 10 g_1,4_ + 12 g_2,1_ + 12 g_2,2_ + 12 g_2,3_ + 12 g_2,4_ + 250 cand_num
subject to
c1_2: 1 x_1,1_ + 500 cand_num - 16.900456312320433 theta_1,1_ + 16.900456312320433 theta_2,1_ <= 500
c2_2: 1 x_1,1_ + 500 cand_num - 33.800912624640866 theta_1,1_ + 33.800912624640866 theta_2,1_ <= 1000
c3_2: 1 x_1,1_ + 500 cand_num - 50.701368936961295 theta_1,1_ + 50.701368936961295 theta_2,1_ <= 1500
c4_2: 1 x_1,1_ + 500 cand_num - 67.60182524928173 theta_1,1_ + 67.60182524928173 theta_2,1_ <= 2000
c5_2: 1 x_1,1_ - 25 cand_num <= 0
c6_2: 1 x_1,2_ + 500 cand_num - 16.900456312320433 theta_1,2_ + 16.900456312320433 theta_2,2_ <= 500
c7_2: 1 x_1,2_ + 500 cand_num - 33.800912624640866 theta_1,2_ + 33.800912624640866 theta_2,2_ <= 1000
c8_2: 1 x_1,2_ + 500 cand_num - 50.701368936961295 theta_1,2_ + 50.701368936961295 theta_2,2_ <= 1500
c9_2: 1 x_1,2_ + 500 cand_num - 67.60182524928173 theta_1,2_ + 67.60182524928173 theta_2,2_ <= 2000
c10_2: 1 x_1,2_ - 25 cand_num <= 0
c11_2: 1 x_1,3_ + 500 cand_num - 16.900456312320433 theta_1,3_ + 16.900456312320433 theta_2,3_ <= 500
c12_2: 1 x_1,3_ + 500 cand_num - 33.800912624640866 theta_1,3_ + 33.800912624640866 theta_2,3_ <= 1000
c13_2: 1 x_1,3_ + 500 cand_num - 50.701368936961295 theta_1,3_ + 50.701368936961295 theta_2,3_ <= 1500
c14_2: 1 x_1,3_ + 500 cand_num - 67.60182524928173 theta_1,3_ + 67.60182524928173 theta_2,3_ <= 2000
c15_2: 1 x_1,3_ - 25 cand_num <= 0
c16_2: 1 x_1,4_ + 500 cand_num - 16.900456312320433 theta_1,4_ + 16.900456312320433 theta_2,4_ <= 500
c17_1: 1 x_1,4_ + 500 cand_num - 33.800912624640866 theta_1,4_ + 33.800912624640866 theta_2,4_ <= 1000
c18_1: 1 x_1,4_ + 500 cand_num - 50.701368936961295 theta_1,4_ + 50.701368936961295 theta_2,4_ <= 1500
c19_1: 1 x_1,4_ + 500 cand_num - 67.60182524928173 theta_1,4_ + 67.60182524928173 theta_2,4_ <= 2000
c20_1: 1 x_1,4_ - 25 cand_num <= 0
c1_1: 1 x_1,1_ - 500 cand_num - 16.900456312320433 theta_1,1_ + 16.900456312320433 theta_2,1_ >= -500
c2_1: 1 x_1,1_ - 500 cand_num - 33.800912624640866 theta_1,1_ + 33.800912624640866 theta_2,1_ >= -1000
c3_1: 1 x_1,1_ - 500 cand_num - 50.701368936961295 theta_1,1_ + 50.701368936961295 theta_2,1_ >= -1500
c4_1: 1 x_1,1_ - 500 cand_num - 67.60182524928173 theta_1,1_ + 67.60182524928173 theta_2,1_ >= -2000
c5_1: 1 x_1,1_ + 25 cand_num >= 0
c6_1: 1 x_1,2_ - 500 cand_num - 16.900456312320433 theta_1,2_ + 16.900456312320433 theta_2,2_ >= -500
c7_1: 1 x_1,2_ - 500 cand_num - 33.800912624640866 theta_1,2_ + 33.800912624640866 theta_2,2_ >= -1000
c8_1: 1 x_1,2_ - 500 cand_num - 50.701368936961295 theta_1,2_ + 50.701368936961295 theta_2,2_ >= -1500
c9_1: 1 x_1,2_ - 500 cand_num - 67.60182524928173 theta_1,2_ + 67.60182524928173 theta_2,2_ >= -2000
c10_1: 1 x_1,2_ + 25 cand_num >= 0
c11_1: 1 x_1,3_ - 500 cand_num - 16.900456312320433 theta_1,3_ + 16.900456312320433 theta_2,3_ >= -500
c12_1: 1 x_1,3_ - 500 cand_num - 33.800912624640866 theta_1,3_ + 33.800912624640866 theta_2,3_ >= -1000
c13_1: 1 x_1,3_ - 500 cand_num - 50.701368936961295 theta_1,3_ + 50.701368936961295 theta_2,3_ >= -1500
c14_1: 1 x_1,3_ - 500 cand_num - 67.60182524928173 theta_1,3_ + 67.60182524928173 theta_2,3_ >= -2000
c15_1: 1 x_1,3_ + 25 cand_num >= 0
c16_1: 1 x_1,4_ - 500 cand_num - 16.900456312320433 theta_1,4_ + 16.900456312320433 theta_2,4_ >= -500
c17: 1 x_1,4_ - 500 cand_num - 33.800912624640866 theta_1,4_ + 33.800912624640866 theta_2,4_ >= -1000
c18: 1 x_1,4_ - 500 cand_num - 50.701368936961295 theta_1,4_ + 50.701368936961295 theta_2,4_ >= -1500
c19: 1 x_1,4_ - 500 cand_num - 67.60182524928173 theta_1,4_ + 67.60182524928173 theta_2,4_ >= -2000
c20: 1 x_1,4_ + 25 cand_num >= 0
c1: 1 g_1,1_ - 1 f_1,1_ - 1 x_1,1_ = 0
c2: 1 g_2,1_ + 1 f_1,1_ + 1 x_1,1_ = 225
c3: 1 f_1,1_ - 16.900456312320433 theta_1,1_ + 16.900456312320433 theta_2,1_ = 0
c4: 1 theta_1,1_ = 0
c5: 1 g_1,2_ - 1 f_1,2_ - 1 x_1,2_ = 0
c6: 1 g_2,2_ + 1 f_1,2_ + 1 x_1,2_ = 250
c7: 1 f_1,2_ - 16.900456312320433 theta_1,2_ + 16.900456312320433 theta_2,2_ = 0
c8: 1 theta_1,2_ = 0
c9: 1 g_1,3_ - 1 f_1,3_ - 1 x_1,3_ = 0
c10: 1 g_2,3_ + 1 f_1,3_ + 1 x_1,3_ = 180
c11: 1 f_1,3_ - 16.900456312320433 theta_1,3_ + 16.900456312320433 theta_2,3_ = 0
c12: 1 theta_1,3_ = 0
c13: 1 g_1,4_ - 1 f_1,4_ - 1 x_1,4_ = 0
c14: 1 g_2,4_ + 1 f_1,4_ + 1 x_1,4_ = 160
c15: 1 f_1,4_ - 16.900456312320433 theta_1,4_ + 16.900456312320433 theta_2,4_ = 0
c16: 1 theta_1,4_ = 0
c1_3: 0 <= 1 g_1,1_ <= 1000
c2_3: 0 <= 1 g_2,1_ <= 100
c3_3: 0 <= 1 g_1,2_ <= 1000
c4_3: 0 <= 1 g_2,2_ <= 100
c5_3: 0 <= 1 g_1,3_ <= 1000
c6_3: 0 <= 1 g_2,3_ <= 100
c7_3: 0 <= 1 g_1,4_ <= 1000
c8_3: 0 <= 1 g_2,4_ <= 100
c9_3: -100 <= -1 g_1,1_ + 1 g_1,2_ <= 100
c10_3: -10 <= -1 g_2,1_ + 1 g_2,2_ <= 10
c11_3: -100 <= -1 g_1,2_ + 1 g_1,3_ <= 100
c12_3: -10 <= -1 g_2,2_ + 1 g_2,3_ <= 10
c13_3: -100 <= -1 g_1,3_ + 1 g_1,4_ <= 100
c14_3: -10 <= -1 g_2,3_ + 1 g_2,4_ <= 10
Bounds
g_1,1_ free
g_2,1_ free
g_1,2_ free
g_2,2_ free
g_1,3_ free
g_2,3_ free
g_1,4_ free
g_2,4_ free
-100 <= f_1,1_ <= 100
-100 <= f_1,2_ <= 100
-100 <= f_1,3_ <= 100
-100 <= f_1,4_ <= 100
x_1,1_ free
x_1,2_ free
x_1,3_ free
x_1,4_ free
0 <= cand_num <= 4
theta_1,1_ free
theta_2,1_ free
theta_1,2_ free
theta_2,2_ free
theta_1,3_ free
theta_2,3_ free
theta_1,4_ free
theta_2,4_ free
General
cand_num
End
