minimize
obj: 34.30293932 gen_var_1_1,3,1_ + 55 gen_var_1_2,3,1_ + 34.30293932 gen_var_1_1,3,2_ + 55 gen_var_1_2,3,2_ + 3.6 gen_var_2_1,3,1_ + 3.15 gen_var_2_2,3,1_ + 3.5 gen_var_2_13,3,1_ + 3.667 gen_var_2_22,3,1_ + 3.75 gen_var_2_23,3,1_ + 4.375 gen_var_2_27,3,1_ + 3.6 gen_var_2_1,3,2_ + 3.15 gen_var_2_2,3,2_ + 3.5 gen_var_2_13,3,2_ + 3.667 gen_var_2_22,3,2_ + 3.75 gen_var_2_23,3,2_ + 4.375 gen_var_2_27,3,2_ + 16.30293932 gen_var_3_1,3,1_ + 37 gen_var_3_2,3,1_ + 16.30293932 gen_var_3_1,3,2_ + 37 gen_var_3_2,3,2_ + 0.2410176361372405 shared_line_decision_var_1_ + 0.19594024895900847 shared_line_decision_var_2_ + 0.44297470440637654 shared_line_decision_var_3_ + 0.6532451422553538 shared_line_decision_var_4_ + 0.1533748593600621 shared_line_decision_var_5_ + 0.34289543567826486 shared_line_decision_var_6_ + 0.1533748593600621 int_line_decision_var_1_1_ + 0.34289543567826486 int_line_decision_var_1_2_ + 0.2519729832343877 int_line_decision_var_1_3_ + 0.21553427385490934 int_line_decision_var_1_4_ + 0.44297470440637654 int_line_decision_var_1_5_ + 6.532451422553539 int_line_decision_var_1_6_ + 1.5337485936006214 int_line_decision_var_1_7_ + 3.673879667981409 int_line_decision_var_1_8_ + 2.355399625886668 int_line_decision_var_1_9_ + 2.400268049747854 int_line_decision_var_1_10_ + 1.5337485936006214 int_line_decision_var_2_1_ + 3.7718497924609133 int_line_decision_var_2_2_ + 2.9579437162297695 int_line_decision_var_2_3_ + 1.175641493754051 int_line_decision_var_2_4_ + 4.429747044063765 int_line_decision_var_2_5_ + 6.532451422553539 int_line_decision_var_2_6_ + 1.5337485936006214 int_line_decision_var_2_7_ + 4.261700414858434 int_line_decision_var_2_8_ + 0.2410176361372405 int_line_decision_var_2_9_ + 0.26451933609466144 int_line_decision_var_2_10_ + 0.44297470440637654 int_line_decision_var_2_11_ + 0.6532451422553538 int_line_decision_var_2_12_ + 0.44297470440637654 int_line_decision_var_2_13_ + 0.6532451422553538 int_line_decision_var_2_14_ + 0.1533748593600621 int_line_decision_var_2_15_ + 0.323301410782364 int_line_decision_var_2_16_ + 0.3505711071087135 int_line_decision_var_2_17_ + 4.429747044063765 int_line_decision_var_2_18_ + 0.21910694194294586 int_line_decision_var_3_1_ + 0.22043278007888453 int_line_decision_var_3_2_
subject to
c1_2: 1 gen_var_1_1,1,1_ <= 3.324
c2_2: -1 gen_var_1_1,1,1_ <= 0
c3_2: 1 gen_var_1_1,2,1_ <= 3.324
c4_2: -1 gen_var_1_1,2,1_ <= 0
c5_2: 1 gen_var_1_1,3,1_ <= 3.324
c6_2: -1 gen_var_1_1,3,1_ <= 0
c7_2: 1 gen_var_1_1,4,1_ <= 3.324
c8_2: -1 gen_var_1_1,4,1_ <= 0
c9_2: 1 gen_var_1_1,1,2_ <= 3.324
c10_2: -1 gen_var_1_1,1,2_ <= 0
c11_2: -1 gen_var_1_1,1,1_ + 1 gen_var_1_1,1,2_ <= 1
c12_2: 1 gen_var_1_1,2,2_ <= 3.324
c13_2: -1 gen_var_1_1,2,2_ <= 0
c14_2: -1 gen_var_1_1,2,1_ + 1 gen_var_1_1,2,2_ <= 1
c15_2: 1 gen_var_1_1,3,2_ <= 3.324
c16_2: -1 gen_var_1_1,3,2_ <= 0
c17_2: -1 gen_var_1_1,3,1_ + 1 gen_var_1_1,3,2_ <= 1
c18_2: 1 gen_var_1_1,4,2_ <= 3.324
c19_2: -1 gen_var_1_1,4,2_ <= 0
c20_2: -1 gen_var_1_1,4,1_ + 1 gen_var_1_1,4,2_ <= 1
c21_2: 1 gen_var_1_2,1,1_ <= 1.4
c22_2: -1 gen_var_1_2,1,1_ <= 0
c23_2: 1 gen_var_1_2,2,1_ <= 1.4
c24_2: -1 gen_var_1_2,2,1_ <= 0
c25_2: 1 gen_var_1_2,3,1_ <= 1.4
c26_2: -1 gen_var_1_2,3,1_ <= 0
c27_2: 1 gen_var_1_2,4,1_ <= 1.4
c28_2: -1 gen_var_1_2,4,1_ <= 0
c29_2: 1 gen_var_1_2,1,2_ <= 1.4
c30_2: -1 gen_var_1_2,1,2_ <= 0
c31_2: -1 gen_var_1_2,1,1_ + 1 gen_var_1_2,1,2_ <= 1
c32_2: 1 gen_var_1_2,2,2_ <= 1.4
c33_2: -1 gen_var_1_2,2,2_ <= 0
c34_2: -1 gen_var_1_2,2,1_ + 1 gen_var_1_2,2,2_ <= 1
c35_2: 1 gen_var_1_2,3,2_ <= 1.4
c36_2: -1 gen_var_1_2,3,2_ <= 0
c37_2: -1 gen_var_1_2,3,1_ + 1 gen_var_1_2,3,2_ <= 1
c38_2: 1 gen_var_1_2,4,2_ <= 1.4
c39_2: -1 gen_var_1_2,4,2_ <= 0
c40_2: -1 gen_var_1_2,4,1_ + 1 gen_var_1_2,4,2_ <= 1
c41_2:  <= 0
c42_2:  <= 0
c43_2:  <= 0
c44_2:  <= 0
c45_2:  <= 0
c46_2:  <= 0
c47_2:  <= 0
c48_2:  <= 0
c49_2:  <= 0
c50_2:  <= 0
c51_2:  <= 0
c52_2:  <= 0
c53_2:  <= 0
c54_2:  <= 0
c55_2:  <= 0
c56_2:  <= 0
c57_2:  <= 0
c58_2:  <= 0
c59_2:  <= 0
c60_2:  <= 0
c61_2:  <= 0
c62_2:  <= 0
c63_2:  <= 0
c64_2:  <= 0
c65_2:  <= 0
c66_2:  <= 0
c67_2:  <= 0
c68_2:  <= 0
c69_2:  <= 0
c70_2:  <= 0
c71_2:  <= 0
c72_2:  <= 0
c73_2:  <= 0
c74_2:  <= 0
c75_2:  <= 0
c76_2:  <= 0
c77_2:  <= 0
c78_2:  <= 0
c79_2:  <= 0
c80_2:  <= 0
c81_2:  <= 0
c82_2:  <= 0
c83_2:  <= 0
c84_2:  <= 0
c85_2:  <= 0
c86_2:  <= 0
c87_2:  <= 0
c88_2:  <= 0
c89_2:  <= 0
c90_2:  <= 0
c91_2:  <= 0
c92_2:  <= 0
c93_2:  <= 0
c94_2:  <= 0
c95_2:  <= 0
c96_2:  <= 0
c97_2:  <= 0
c98_2:  <= 0
c99_2:  <= 0
c100_2:  <= 0
c101_2:  <= 0
c102_2:  <= 0
c103_2:  <= 0
c104_2:  <= 0
c105_2:  <= 0
c106_2:  <= 0
c107_2:  <= 0
c108_2:  <= 0
c109_2:  <= 0
c110_2:  <= 0
c111_2:  <= 0
c112_2:  <= 0
c113_2:  <= 0
c114_2:  <= 0
c115_2:  <= 0
c116_2:  <= 0
c117_2:  <= 0
c118_2:  <= 0
c119_2:  <= 0
c120_2:  <= 0
c121_2:  <= 0
c122_2:  <= 0
c123_2:  <= 0
c124_2:  <= 0
c125_2:  <= 0
c126_2:  <= 0
c127_2:  <= 0
c128_2:  <= 0
c129_2:  <= 0
c130_2:  <= 0
c131_2:  <= 0
c132_2:  <= 0
c133_2:  <= 0
c134_2:  <= 0
c135_2:  <= 0
c136_2:  <= 0
c137_2:  <= 0
c138_2:  <= 0
c139_2:  <= 0
c140_2:  <= 0
c141_2:  <= 0
c142_2:  <= 0
c143_2:  <= 0
c144_2:  <= 0
c145_2:  <= 0
c146_2:  <= 0
c147_2:  <= 0
c148_2:  <= 0
c149_2:  <= 0
c150_2:  <= 0
c151_2:  <= 0
c152_2:  <= 0
c153_2:  <= 0
c154_2:  <= 0
c155_2:  <= 0
c156_2:  <= 0
c157_2:  <= 0
c158_2:  <= 0
c159_2:  <= 0
c160_2:  <= 0
c161_2:  <= 0
c162_2:  <= 0
c163_2:  <= 0
c164_2:  <= 0
c165_2:  <= 0
c166_2:  <= 0
c167_2:  <= 0
c168_2:  <= 0
c169_2:  <= 0
c170_2:  <= 0
c171_2:  <= 0
c172_2:  <= 0
c173_2:  <= 0
c174_2:  <= 0
c175_2:  <= 0
c176_2:  <= 0
c177_2:  <= 0
c178_2:  <= 0
c179_2:  <= 0
c180_2:  <= 0
c181_2:  <= 0
c182_2:  <= 0
c183_2:  <= 0
c184_2:  <= 0
c185_2:  <= 0
c186_2:  <= 0
c187_2:  <= 0
c188_2:  <= 0
c189_2:  <= 0
c190_2:  <= 0
c191_2:  <= 0
c192_2:  <= 0
c193_2:  <= 0
c194_2:  <= 0
c195_2:  <= 0
c196_2:  <= 0
c197_1:  <= 0
c198_1:  <= 0
c199_1:  <= 0
c200_1:  <= 0
c201_1:  <= 0
c202_1:  <= 0
c203_1:  <= 0
c204_1:  <= 0
c205_1:  <= 0
c206_1:  <= 0
c207_1:  <= 0
c208_1:  <= 0
c209_1:  <= 0
c210_1:  <= 0
c211_1:  <= 0
c212_1:  <= 0
c213_1:  <= 0
c214_1:  <= 0
c215_1:  <= 0
c216_1:  <= 0
c217_1:  <= 0
c218_1:  <= 0
c219_1:  <= 0
c220_1:  <= 0
c221_1:  <= 0
c222_1:  <= 0
c223_1:  <= 0
c224_1:  <= 0
c225_1:  <= 0
c226_1:  <= 0
c227_1:  <= 0
c228_1:  <= 0
c229_1:  <= 0
c230_1:  <= 0
c231_1:  <= 0
c232_1:  <= 0
c233_1:  <= 0
c234_1:  <= 0
c235_1:  <= 0
c236_1:  <= 0
c237_1:  <= 0
c238_1:  <= 0
c239_1:  <= 0
c240_1:  <= 0
c241_1:  <= 0
c242_1:  <= 0
c243_1:  <= 0
c244_1:  <= 0
c245_1:  <= 0
c246_1:  <= 0
c247_1:  <= 0
c248_1:  <= 0
c249_1:  <= 0
c250_1:  <= 0
c251_1:  <= 0
c252_1:  <= 0
c253_1:  <= 0
c254_1:  <= 0
c255_1:  <= 0
c256_1:  <= 0
c257_1:  <= 0
c258_1:  <= 0
c259_1:  <= 0
c260_1:  <= 0
c261_1:  <= 0
c262_1:  <= 0
c263_1:  <= 0
c264_1:  <= 0
c265_1:  <= 0
c266_1:  <= 0
c267_1:  <= 0
c268_1:  <= 0
c269_1:  <= 0
c270_1:  <= 0
c271_1:  <= 0
c272_1:  <= 0
c273_1:  <= 0
c274_1:  <= 0
c275_1:  <= 0
c276_1:  <= 0
c277_1:  <= 0
c278_1:  <= 0
c279_1:  <= 0
c280_1:  <= 0
c281_1: 1 gen_var_2_1,1,1_ <= 0.8
c282_1: -1 gen_var_2_1,1,1_ <= 0
c283_1: 1 gen_var_2_1,2,1_ <= 0.8
c284_1: -1 gen_var_2_1,2,1_ <= 0
c285_1: 1 gen_var_2_1,3,1_ <= 0.8
c286_1: -1 gen_var_2_1,3,1_ <= 0
c287_1: 1 gen_var_2_1,4,1_ <= 0.8
c288_1: -1 gen_var_2_1,4,1_ <= 0
c289_1: 1 gen_var_2_1,1,2_ <= 0.8
c290_1: -1 gen_var_2_1,1,2_ <= 0
c291_1: -1 gen_var_2_1,1,1_ + 1 gen_var_2_1,1,2_ <= 1
c292_1: 1 gen_var_2_1,2,2_ <= 0.8
c293_1: -1 gen_var_2_1,2,2_ <= 0
c294_1: -1 gen_var_2_1,2,1_ + 1 gen_var_2_1,2,2_ <= 1
c295_1: 1 gen_var_2_1,3,2_ <= 0.8
c296_1: -1 gen_var_2_1,3,2_ <= 0
c297_1: -1 gen_var_2_1,3,1_ + 1 gen_var_2_1,3,2_ <= 1
c298_1: 1 gen_var_2_1,4,2_ <= 0.8
c299_1: -1 gen_var_2_1,4,2_ <= 0
c300_1: -1 gen_var_2_1,4,1_ + 1 gen_var_2_1,4,2_ <= 1
c301_1: 1 gen_var_2_2,1,1_ <= 0.8
c302_1: -1 gen_var_2_2,1,1_ <= 0
c303_1: 1 gen_var_2_2,2,1_ <= 0.8
c304_1: -1 gen_var_2_2,2,1_ <= 0
c305_1: 1 gen_var_2_2,3,1_ <= 0.8
c306_1: -1 gen_var_2_2,3,1_ <= 0
c307_1: 1 gen_var_2_2,4,1_ <= 0.8
c308_1: -1 gen_var_2_2,4,1_ <= 0
c309_1: 1 gen_var_2_2,1,2_ <= 0.8
c310_1: -1 gen_var_2_2,1,2_ <= 0
c311_1: -1 gen_var_2_2,1,1_ + 1 gen_var_2_2,1,2_ <= 1
c312_1: 1 gen_var_2_2,2,2_ <= 0.8
c313_1: -1 gen_var_2_2,2,2_ <= 0
c314_1: -1 gen_var_2_2,2,1_ + 1 gen_var_2_2,2,2_ <= 1
c315_1: 1 gen_var_2_2,3,2_ <= 0.8
c316_1: -1 gen_var_2_2,3,2_ <= 0
c317_1: -1 gen_var_2_2,3,1_ + 1 gen_var_2_2,3,2_ <= 1
c318_1: 1 gen_var_2_2,4,2_ <= 0.8
c319_1: -1 gen_var_2_2,4,2_ <= 0
c320_1: -1 gen_var_2_2,4,1_ + 1 gen_var_2_2,4,2_ <= 1
c321_1:  <= 0
c322_1:  <= 0
c323_1:  <= 0
c324_1:  <= 0
c325_1:  <= 0
c326_1:  <= 0
c327_1:  <= 0
c328_1:  <= 0
c329_1:  <= 0
c330_1:  <= 0
c331_1:  <= 0
c332_1:  <= 0
c333_1:  <= 0
c334_1:  <= 0
c335_1:  <= 0
c336_1:  <= 0
c337_1:  <= 0
c338_1:  <= 0
c339_1:  <= 0
c340_1:  <= 0
c341_1:  <= 0
c342_1:  <= 0
c343_1:  <= 0
c344_1:  <= 0
c345_1:  <= 0
c346_1:  <= 0
c347_1:  <= 0
c348_1:  <= 0
c349_1:  <= 0
c350_1:  <= 0
c351_1:  <= 0
c352_1:  <= 0
c353_1:  <= 0
c354_1:  <= 0
c355_1:  <= 0
c356_1:  <= 0
c357_1:  <= 0
c358_1:  <= 0
c359_1:  <= 0
c360_1:  <= 0
c361_1:  <= 0
c362_1:  <= 0
c363_1:  <= 0
c364_1:  <= 0
c365_1:  <= 0
c366_1:  <= 0
c367_1:  <= 0
c368_1:  <= 0
c369_1:  <= 0
c370_1:  <= 0
c371_1:  <= 0
c372_1:  <= 0
c373_1:  <= 0
c374_1:  <= 0
c375_1:  <= 0
c376_1:  <= 0
c377_1:  <= 0
c378_1:  <= 0
c379_1:  <= 0
c380_1:  <= 0
c381_1:  <= 0
c382_1:  <= 0
c383_1:  <= 0
c384_1:  <= 0
c385_1:  <= 0
c386_1:  <= 0
c387_1:  <= 0
c388_1:  <= 0
c389_1:  <= 0
c390_1:  <= 0
c391_1:  <= 0
c392_1:  <= 0
c393_1:  <= 0
c394_1:  <= 0
c395_1:  <= 0
c396_1:  <= 0
c397_1:  <= 0
c398_1:  <= 0
c399_1:  <= 0
c400_1:  <= 0
c401_1:  <= 0
c402_1:  <= 0
c403_1:  <= 0
c404_1:  <= 0
c405_1:  <= 0
c406_1:  <= 0
c407_1:  <= 0
c408_1:  <= 0
c409_1:  <= 0
c410_1:  <= 0
c411_1:  <= 0
c412_1:  <= 0
c413_1:  <= 0
c414_1:  <= 0
c415_1:  <= 0
c416_1:  <= 0
c417_1:  <= 0
c418_1:  <= 0
c419_1:  <= 0
c420_1:  <= 0
c421_1:  <= 0
c422_1:  <= 0
c423_1:  <= 0
c424_1:  <= 0
c425_1:  <= 0
c426_1:  <= 0
c427_1:  <= 0
c428_1:  <= 0
c429_1:  <= 0
c430_1:  <= 0
c431_1:  <= 0
c432_1:  <= 0
c433_1:  <= 0
c434_1:  <= 0
c435_1:  <= 0
c436_1:  <= 0
c437_1:  <= 0
c438_1:  <= 0
c439_1:  <= 0
c440_1:  <= 0
c441_1:  <= 0
c442_1:  <= 0
c443_1:  <= 0
c444_1:  <= 0
c445_1:  <= 0
c446_1:  <= 0
c447_1:  <= 0
c448_1:  <= 0
c449_1:  <= 0
c450_1:  <= 0
c451_1:  <= 0
c452_1:  <= 0
c453_1:  <= 0
c454_1:  <= 0
c455_1:  <= 0
c456_1:  <= 0
c457_1:  <= 0
c458_1:  <= 0
c459_1:  <= 0
c460_1:  <= 0
c461_1:  <= 0
c462_1:  <= 0
c463_1:  <= 0
c464_1:  <= 0
c465_1:  <= 0
c466_1:  <= 0
c467_1:  <= 0
c468_1:  <= 0
c469_1:  <= 0
c470_1:  <= 0
c471_1:  <= 0
c472_1:  <= 0
c473_1:  <= 0
c474_1:  <= 0
c475_1:  <= 0
c476_1:  <= 0
c477_1:  <= 0
c478_1:  <= 0
c479_1:  <= 0
c480_1:  <= 0
c481_1:  <= 0
c482_1:  <= 0
c483_1:  <= 0
c484_1:  <= 0
c485_1:  <= 0
c486_1:  <= 0
c487_1:  <= 0
c488_1:  <= 0
c489_1:  <= 0
c490_1:  <= 0
c491_1:  <= 0
c492_1:  <= 0
c493_1:  <= 0
c494_1:  <= 0
c495_1:  <= 0
c496_1:  <= 0
c497_1:  <= 0
c498_1:  <= 0
c499_1:  <= 0
c500_1:  <= 0
c501_1:  <= 0
c502_1:  <= 0
c503_1:  <= 0
c504_1:  <= 0
c505_1:  <= 0
c506_1:  <= 0
c507_1:  <= 0
c508_1:  <= 0
c509_1:  <= 0
c510_1:  <= 0
c511_1:  <= 0
c512_1:  <= 0
c513_1:  <= 0
c514_1:  <= 0
c515_1:  <= 0
c516_1:  <= 0
c517_1:  <= 0
c518_1:  <= 0
c519_1:  <= 0
c520_1:  <= 0
c521_1: 1 gen_var_2_13,1,1_ <= 0.4
c522_1: -1 gen_var_2_13,1,1_ <= 0
c523_1: 1 gen_var_2_13,2,1_ <= 0.4
c524_1: -1 gen_var_2_13,2,1_ <= 0
c525_1: 1 gen_var_2_13,3,1_ <= 0.4
c526_1: -1 gen_var_2_13,3,1_ <= 0
c527_1: 1 gen_var_2_13,4,1_ <= 0.4
c528_1: -1 gen_var_2_13,4,1_ <= 0
c529_1: 1 gen_var_2_13,1,2_ <= 0.4
c530_1: -1 gen_var_2_13,1,2_ <= 0
c531_1: -1 gen_var_2_13,1,1_ + 1 gen_var_2_13,1,2_ <= 1
c532_1: 1 gen_var_2_13,2,2_ <= 0.4
c533_1: -1 gen_var_2_13,2,2_ <= 0
c534_1: -1 gen_var_2_13,2,1_ + 1 gen_var_2_13,2,2_ <= 1
c535_1: 1 gen_var_2_13,3,2_ <= 0.4
c536_1: -1 gen_var_2_13,3,2_ <= 0
c537_1: -1 gen_var_2_13,3,1_ + 1 gen_var_2_13,3,2_ <= 1
c538_1: 1 gen_var_2_13,4,2_ <= 0.4
c539_1: -1 gen_var_2_13,4,2_ <= 0
c540_1: -1 gen_var_2_13,4,1_ + 1 gen_var_2_13,4,2_ <= 1
c541_1:  <= 0
c542_1:  <= 0
c543_1:  <= 0
c544_1:  <= 0
c545_1:  <= 0
c546_1:  <= 0
c547_1:  <= 0
c548_1:  <= 0
c549_1:  <= 0
c550_1:  <= 0
c551_1:  <= 0
c552_1:  <= 0
c553_1:  <= 0
c554_1:  <= 0
c555_1:  <= 0
c556_1:  <= 0
c557_1:  <= 0
c558_1:  <= 0
c559_1:  <= 0
c560_1:  <= 0
c561_1:  <= 0
c562_1:  <= 0
c563_1:  <= 0
c564_1:  <= 0
c565_1:  <= 0
c566_1:  <= 0
c567_1:  <= 0
c568_1:  <= 0
c569_1:  <= 0
c570_1:  <= 0
c571_1:  <= 0
c572_1:  <= 0
c573_1:  <= 0
c574_1:  <= 0
c575_1:  <= 0
c576_1:  <= 0
c577_1:  <= 0
c578_1:  <= 0
c579_1:  <= 0
c580_1:  <= 0
c581_1:  <= 0
c582_1:  <= 0
c583_1:  <= 0
c584_1:  <= 0
c585_1:  <= 0
c586_1:  <= 0
c587_1:  <= 0
c588_1:  <= 0
c589_1:  <= 0
c590_1:  <= 0
c591_1:  <= 0
c592_1:  <= 0
c593_1:  <= 0
c594_1:  <= 0
c595_1:  <= 0
c596_1:  <= 0
c597_1:  <= 0
c598_1:  <= 0
c599_1:  <= 0
c600_1:  <= 0
c601_1:  <= 0
c602_1:  <= 0
c603_1:  <= 0
c604_1:  <= 0
c605_1:  <= 0
c606_1:  <= 0
c607_1:  <= 0
c608_1:  <= 0
c609_1:  <= 0
c610_1:  <= 0
c611_1:  <= 0
c612_1:  <= 0
c613_1:  <= 0
c614_1:  <= 0
c615_1:  <= 0
c616_1:  <= 0
c617_1:  <= 0
c618_1:  <= 0
c619_1:  <= 0
c620_1:  <= 0
c621_1:  <= 0
c622_1:  <= 0
c623_1:  <= 0
c624_1:  <= 0
c625_1:  <= 0
c626_1:  <= 0
c627_1:  <= 0
c628_1:  <= 0
c629_1:  <= 0
c630_1:  <= 0
c631_1:  <= 0
c632_1:  <= 0
c633_1:  <= 0
c634_1:  <= 0
c635_1:  <= 0
c636_1:  <= 0
c637_1:  <= 0
c638_1:  <= 0
c639_1:  <= 0
c640_1:  <= 0
c641_1:  <= 0
c642_1:  <= 0
c643_1:  <= 0
c644_1:  <= 0
c645_1:  <= 0
c646_1:  <= 0
c647_1:  <= 0
c648_1:  <= 0
c649_1:  <= 0
c650_1:  <= 0
c651_1:  <= 0
c652_1:  <= 0
c653_1:  <= 0
c654_1:  <= 0
c655_1:  <= 0
c656_1:  <= 0
c657_1:  <= 0
c658_1:  <= 0
c659_1:  <= 0
c660_1:  <= 0
c661_1:  <= 0
c662_1:  <= 0
c663_1:  <= 0
c664_1:  <= 0
c665_1:  <= 0
c666_1:  <= 0
c667_1:  <= 0
c668_1:  <= 0
c669_1:  <= 0
c670_1:  <= 0
c671_1:  <= 0
c672_1:  <= 0
c673_1:  <= 0
c674_1:  <= 0
c675_1:  <= 0
c676_1:  <= 0
c677_1:  <= 0
c678_1:  <= 0
c679_1:  <= 0
c680_1:  <= 0
c681_1:  <= 0
c682_1:  <= 0
c683_1:  <= 0
c684_1:  <= 0
c685_1:  <= 0
c686_1:  <= 0
c687_1:  <= 0
c688_1:  <= 0
c689_1:  <= 0
c690_1:  <= 0
c691_1:  <= 0
c692_1:  <= 0
c693_1:  <= 0
c694_1:  <= 0
c695_1:  <= 0
c696_1:  <= 0
c697_1:  <= 0
c698_1:  <= 0
c699_1:  <= 0
c700_1:  <= 0
c701_1: 1 gen_var_2_22,1,1_ <= 0.5
c702_1: -1 gen_var_2_22,1,1_ <= 0
c703_1: 1 gen_var_2_22,2,1_ <= 0.5
c704_1: -1 gen_var_2_22,2,1_ <= 0
c705_1: 1 gen_var_2_22,3,1_ <= 0.5
c706_1: -1 gen_var_2_22,3,1_ <= 0
c707_1: 1 gen_var_2_22,4,1_ <= 0.5
c708_1: -1 gen_var_2_22,4,1_ <= 0
c709_1: 1 gen_var_2_22,1,2_ <= 0.5
c710_1: -1 gen_var_2_22,1,2_ <= 0
c711_1: -1 gen_var_2_22,1,1_ + 1 gen_var_2_22,1,2_ <= 1
c712_1: 1 gen_var_2_22,2,2_ <= 0.5
c713_1: -1 gen_var_2_22,2,2_ <= 0
c714_1: -1 gen_var_2_22,2,1_ + 1 gen_var_2_22,2,2_ <= 1
c715_1: 1 gen_var_2_22,3,2_ <= 0.5
c716_1: -1 gen_var_2_22,3,2_ <= 0
c717_1: -1 gen_var_2_22,3,1_ + 1 gen_var_2_22,3,2_ <= 1
c718_1: 1 gen_var_2_22,4,2_ <= 0.5
c719_1: -1 gen_var_2_22,4,2_ <= 0
c720_1: -1 gen_var_2_22,4,1_ + 1 gen_var_2_22,4,2_ <= 1
c721_1: 1 gen_var_2_23,1,1_ <= 0.3
c722_1: -1 gen_var_2_23,1,1_ <= 0
c723_1: 1 gen_var_2_23,2,1_ <= 0.3
c724_1: -1 gen_var_2_23,2,1_ <= 0
c725_1: 1 gen_var_2_23,3,1_ <= 0.3
c726_1: -1 gen_var_2_23,3,1_ <= 0
c727_1: 1 gen_var_2_23,4,1_ <= 0.3
c728_1: -1 gen_var_2_23,4,1_ <= 0
c729_1: 1 gen_var_2_23,1,2_ <= 0.3
c730_1: -1 gen_var_2_23,1,2_ <= 0
c731_1: -1 gen_var_2_23,1,1_ + 1 gen_var_2_23,1,2_ <= 1
c732_1: 1 gen_var_2_23,2,2_ <= 0.3
c733_1: -1 gen_var_2_23,2,2_ <= 0
c734_1: -1 gen_var_2_23,2,1_ + 1 gen_var_2_23,2,2_ <= 1
c735_1: 1 gen_var_2_23,3,2_ <= 0.3
c736_1: -1 gen_var_2_23,3,2_ <= 0
c737_1: -1 gen_var_2_23,3,1_ + 1 gen_var_2_23,3,2_ <= 1
c738_1: 1 gen_var_2_23,4,2_ <= 0.3
c739_1: -1 gen_var_2_23,4,2_ <= 0
c740_1: -1 gen_var_2_23,4,1_ + 1 gen_var_2_23,4,2_ <= 1
c741_1:  <= 0
c742_1:  <= 0
c743_1:  <= 0
c744_1:  <= 0
c745_1:  <= 0
c746_1:  <= 0
c747_1:  <= 0
c748_1:  <= 0
c749_1:  <= 0
c750_1:  <= 0
c751_1:  <= 0
c752_1:  <= 0
c753_1:  <= 0
c754_1:  <= 0
c755_1:  <= 0
c756_1:  <= 0
c757_1:  <= 0
c758_1:  <= 0
c759_1:  <= 0
c760_1:  <= 0
c761_1:  <= 0
c762_1:  <= 0
c763_1:  <= 0
c764_1:  <= 0
c765_1:  <= 0
c766_1:  <= 0
c767_1:  <= 0
c768_1:  <= 0
c769_1:  <= 0
c770_1:  <= 0
c771_1:  <= 0
c772_1:  <= 0
c773_1:  <= 0
c774_1:  <= 0
c775_1:  <= 0
c776_1:  <= 0
c777_1:  <= 0
c778_1:  <= 0
c779_1:  <= 0
c780_1:  <= 0
c781_1:  <= 0
c782_1:  <= 0
c783_1:  <= 0
c784_1:  <= 0
c785_1:  <= 0
c786_1:  <= 0
c787_1:  <= 0
c788_1:  <= 0
c789_1:  <= 0
c790_1:  <= 0
c791_1:  <= 0
c792_1:  <= 0
c793_1:  <= 0
c794_1:  <= 0
c795_1:  <= 0
c796_1:  <= 0
c797_1:  <= 0
c798_1:  <= 0
c799_1:  <= 0
c800_1:  <= 0
c801_1: 1 gen_var_2_27,1,1_ <= 0.55
c802_1: -1 gen_var_2_27,1,1_ <= 0
c803_1: 1 gen_var_2_27,2,1_ <= 0.55
c804_1: -1 gen_var_2_27,2,1_ <= 0
c805_1: 1 gen_var_2_27,3,1_ <= 0.55
c806_1: -1 gen_var_2_27,3,1_ <= 0
c807_1: 1 gen_var_2_27,4,1_ <= 0.55
c808_1: -1 gen_var_2_27,4,1_ <= 0
c809_1: 1 gen_var_2_27,1,2_ <= 0.55
c810_1: -1 gen_var_2_27,1,2_ <= 0
c811_1: -1 gen_var_2_27,1,1_ + 1 gen_var_2_27,1,2_ <= 1
c812_1: 1 gen_var_2_27,2,2_ <= 0.55
c813_1: -1 gen_var_2_27,2,2_ <= 0
c814_1: -1 gen_var_2_27,2,1_ + 1 gen_var_2_27,2,2_ <= 1
c815_1: 1 gen_var_2_27,3,2_ <= 0.55
c816_1: -1 gen_var_2_27,3,2_ <= 0
c817_1: -1 gen_var_2_27,3,1_ + 1 gen_var_2_27,3,2_ <= 1
c818_1: 1 gen_var_2_27,4,2_ <= 0.55
c819_1: -1 gen_var_2_27,4,2_ <= 0
c820_1: -1 gen_var_2_27,4,1_ + 1 gen_var_2_27,4,2_ <= 1
c821_1:  <= 0
c822_1:  <= 0
c823_1:  <= 0
c824_1:  <= 0
c825_1:  <= 0
c826_1:  <= 0
c827_1:  <= 0
c828_1:  <= 0
c829_1:  <= 0
c830_1:  <= 0
c831_1:  <= 0
c832_1:  <= 0
c833_1:  <= 0
c834_1:  <= 0
c835_1:  <= 0
c836_1:  <= 0
c837_1:  <= 0
c838_1:  <= 0
c839_1:  <= 0
c840_1:  <= 0
c841_1:  <= 0
c842_1:  <= 0
c843_1:  <= 0
c844_1:  <= 0
c845_1:  <= 0
c846_1:  <= 0
c847_1:  <= 0
c848_1:  <= 0
c849_1:  <= 0
c850_1:  <= 0
c851_1:  <= 0
c852_1:  <= 0
c853_1:  <= 0
c854_1:  <= 0
c855_1:  <= 0
c856_1:  <= 0
c857_1:  <= 0
c858_1:  <= 0
c859_1:  <= 0
c860_1:  <= 0
c861_1:  <= 0
c862_1:  <= 0
c863_1:  <= 0
c864_1:  <= 0
c865_1:  <= 0
c866_1:  <= 0
c867_1:  <= 0
c868_1:  <= 0
c869_1:  <= 0
c870_1:  <= 0
c871_1:  <= 0
c872_1:  <= 0
c873_1:  <= 0
c874_1:  <= 0
c875_1:  <= 0
c876_1:  <= 0
c877_1:  <= 0
c878_1:  <= 0
c879_1:  <= 0
c880_1:  <= 0
c881_1: 1 gen_var_3_1,1,1_ <= 3.324
c882_1: -1 gen_var_3_1,1,1_ <= 0
c883_1: 1 gen_var_3_1,2,1_ <= 3.324
c884_1: -1 gen_var_3_1,2,1_ <= 0
c885_1: 1 gen_var_3_1,3,1_ <= 3.324
c886_1: -1 gen_var_3_1,3,1_ <= 0
c887_1: 1 gen_var_3_1,4,1_ <= 3.324
c888_1: -1 gen_var_3_1,4,1_ <= 0
c889_1: 1 gen_var_3_1,1,2_ <= 3.324
c890_1: -1 gen_var_3_1,1,2_ <= 0
c891_1: -1 gen_var_3_1,1,1_ + 1 gen_var_3_1,1,2_ <= 1
c892_1: 1 gen_var_3_1,2,2_ <= 3.324
c893_1: -1 gen_var_3_1,2,2_ <= 0
c894_1: -1 gen_var_3_1,2,1_ + 1 gen_var_3_1,2,2_ <= 1
c895_1: 1 gen_var_3_1,3,2_ <= 3.324
c896_1: -1 gen_var_3_1,3,2_ <= 0
c897_1: -1 gen_var_3_1,3,1_ + 1 gen_var_3_1,3,2_ <= 1
c898_1: 1 gen_var_3_1,4,2_ <= 3.324
c899_1: -1 gen_var_3_1,4,2_ <= 0
c900_1: -1 gen_var_3_1,4,1_ + 1 gen_var_3_1,4,2_ <= 1
c901_1: 1 gen_var_3_2,1,1_ <= 1.4
c902_1: -1 gen_var_3_2,1,1_ <= 0
c903_1: 1 gen_var_3_2,2,1_ <= 1.4
c904_1: -1 gen_var_3_2,2,1_ <= 0
c905_1: 1 gen_var_3_2,3,1_ <= 1.4
c906_1: -1 gen_var_3_2,3,1_ <= 0
c907_1: 1 gen_var_3_2,4,1_ <= 1.4
c908_1: -1 gen_var_3_2,4,1_ <= 0
c909_1: 1 gen_var_3_2,1,2_ <= 1.4
c910_1: -1 gen_var_3_2,1,2_ <= 0
c911_1: -1 gen_var_3_2,1,1_ + 1 gen_var_3_2,1,2_ <= 1
c912_1: 1 gen_var_3_2,2,2_ <= 1.4
c913_1: -1 gen_var_3_2,2,2_ <= 0
c914_1: -1 gen_var_3_2,2,1_ + 1 gen_var_3_2,2,2_ <= 1
c915_1: 1 gen_var_3_2,3,2_ <= 1.4
c916_1: -1 gen_var_3_2,3,2_ <= 0
c917_1: -1 gen_var_3_2,3,1_ + 1 gen_var_3_2,3,2_ <= 1
c918_1: 1 gen_var_3_2,4,2_ <= 1.4
c919_1: -1 gen_var_3_2,4,2_ <= 0
c920_1: -1 gen_var_3_2,4,1_ + 1 gen_var_3_2,4,2_ <= 1
c921_1:  <= 0
c922_1:  <= 0
c923_1:  <= 0
c924_1:  <= 0
c925_1:  <= 0
c926_1:  <= 0
c927_1:  <= 0
c928_1:  <= 0
c929_1:  <= 0
c930_1:  <= 0
c931_1:  <= 0
c932_1:  <= 0
c933_1:  <= 0
c934_1:  <= 0
c935_1:  <= 0
c936_1:  <= 0
c937_1:  <= 0
c938_1:  <= 0
c939_1:  <= 0
c940_1:  <= 0
c941_1:  <= 0
c942_1:  <= 0
c943_1:  <= 0
c944_1:  <= 0
c945_1:  <= 0
c946_1:  <= 0
c947_1:  <= 0
c948_1:  <= 0
c949_1:  <= 0
c950_1:  <= 0
c951_1:  <= 0
c952_1:  <= 0
c953_1:  <= 0
c954_1:  <= 0
c955_1:  <= 0
c956_1:  <= 0
c957_1:  <= 0
c958_1:  <= 0
c959_1:  <= 0
c960_1:  <= 0
c961_1:  <= 0
c962_1:  <= 0
c963_1:  <= 0
c964_1:  <= 0
c965_1:  <= 0
c966_1:  <= 0
c967_1:  <= 0
c968_1:  <= 0
c969_1:  <= 0
c970_1:  <= 0
c971_1:  <= 0
c972_1:  <= 0
c973_1:  <= 0
c974_1:  <= 0
c975_1:  <= 0
c976_1:  <= 0
c977_1:  <= 0
c978_1:  <= 0
c979_1:  <= 0
c980_1:  <= 0
c981_1: 5 shared_line_decision_var_1_ - 1 shared_cand_flow_1,1,1_ + 16.900456312320433 node_voltage_phase_angle_1,1,1,1_ - 16.900456312320433 node_voltage_phase_angle_3,2,1,1_ <= 5
c982_1: 5 shared_line_decision_var_1_ + 1 shared_cand_flow_1,1,1_ - 16.900456312320433 node_voltage_phase_angle_1,1,1,1_ + 16.900456312320433 node_voltage_phase_angle_3,2,1,1_ <= 5
c983_1: -1 shared_line_decision_var_1_ + 1 shared_cand_flow_1,1,1_ <= 0
c984_1: -1 shared_line_decision_var_1_ - 1 shared_cand_flow_1,1,1_ <= 0
c985_1: 5 shared_line_decision_var_1_ - 1 shared_cand_flow_1,2,1_ + 16.900456312320433 node_voltage_phase_angle_1,1,2,1_ - 16.900456312320433 node_voltage_phase_angle_3,2,2,1_ <= 5
c986_1: 5 shared_line_decision_var_1_ + 1 shared_cand_flow_1,2,1_ - 16.900456312320433 node_voltage_phase_angle_1,1,2,1_ + 16.900456312320433 node_voltage_phase_angle_3,2,2,1_ <= 5
c987_1: -1 shared_line_decision_var_1_ + 1 shared_cand_flow_1,2,1_ <= 0
c988_1: -1 shared_line_decision_var_1_ - 1 shared_cand_flow_1,2,1_ <= 0
c989_1: 5 shared_line_decision_var_1_ - 1 shared_cand_flow_1,3,1_ + 16.900456312320433 node_voltage_phase_angle_1,1,3,1_ - 16.900456312320433 node_voltage_phase_angle_3,2,3,1_ <= 5
c990_1: 5 shared_line_decision_var_1_ + 1 shared_cand_flow_1,3,1_ - 16.900456312320433 node_voltage_phase_angle_1,1,3,1_ + 16.900456312320433 node_voltage_phase_angle_3,2,3,1_ <= 5
c991_1: -1 shared_line_decision_var_1_ + 1 shared_cand_flow_1,3,1_ <= 0
c992_1: -1 shared_line_decision_var_1_ - 1 shared_cand_flow_1,3,1_ <= 0
c993_1: 5 shared_line_decision_var_1_ - 1 shared_cand_flow_1,4,1_ + 16.900456312320433 node_voltage_phase_angle_1,1,4,1_ - 16.900456312320433 node_voltage_phase_angle_3,2,4,1_ <= 5
c994_1: 5 shared_line_decision_var_1_ + 1 shared_cand_flow_1,4,1_ - 16.900456312320433 node_voltage_phase_angle_1,1,4,1_ + 16.900456312320433 node_voltage_phase_angle_3,2,4,1_ <= 5
c995_1: -1 shared_line_decision_var_1_ + 1 shared_cand_flow_1,4,1_ <= 0
c996_1: -1 shared_line_decision_var_1_ - 1 shared_cand_flow_1,4,1_ <= 0
c997_1: 5 shared_line_decision_var_1_ - 1 shared_cand_flow_1,1,2_ + 16.900456312320433 node_voltage_phase_angle_1,1,1,2_ - 16.900456312320433 node_voltage_phase_angle_3,2,1,2_ <= 5
c998_1: 5 shared_line_decision_var_1_ + 1 shared_cand_flow_1,1,2_ - 16.900456312320433 node_voltage_phase_angle_1,1,1,2_ + 16.900456312320433 node_voltage_phase_angle_3,2,1,2_ <= 5
c999_1: -1 shared_line_decision_var_1_ + 1 shared_cand_flow_1,1,2_ <= 0
c1000_1: -1 shared_line_decision_var_1_ - 1 shared_cand_flow_1,1,2_ <= 0
c1001: 5 shared_line_decision_var_1_ - 1 shared_cand_flow_1,2,2_ + 16.900456312320433 node_voltage_phase_angle_1,1,2,2_ - 16.900456312320433 node_voltage_phase_angle_3,2,2,2_ <= 5
c1002: 5 shared_line_decision_var_1_ + 1 shared_cand_flow_1,2,2_ - 16.900456312320433 node_voltage_phase_angle_1,1,2,2_ + 16.900456312320433 node_voltage_phase_angle_3,2,2,2_ <= 5
c1003: -1 shared_line_decision_var_1_ + 1 shared_cand_flow_1,2,2_ <= 0
c1004: -1 shared_line_decision_var_1_ - 1 shared_cand_flow_1,2,2_ <= 0
c1005: 5 shared_line_decision_var_1_ - 1 shared_cand_flow_1,3,2_ + 16.900456312320433 node_voltage_phase_angle_1,1,3,2_ - 16.900456312320433 node_voltage_phase_angle_3,2,3,2_ <= 5
c1006: 5 shared_line_decision_var_1_ + 1 shared_cand_flow_1,3,2_ - 16.900456312320433 node_voltage_phase_angle_1,1,3,2_ + 16.900456312320433 node_voltage_phase_angle_3,2,3,2_ <= 5
c1007: -1 shared_line_decision_var_1_ + 1 shared_cand_flow_1,3,2_ <= 0
c1008: -1 shared_line_decision_var_1_ - 1 shared_cand_flow_1,3,2_ <= 0
c1009: 5 shared_line_decision_var_1_ - 1 shared_cand_flow_1,4,2_ + 16.900456312320433 node_voltage_phase_angle_1,1,4,2_ - 16.900456312320433 node_voltage_phase_angle_3,2,4,2_ <= 5
c1010: 5 shared_line_decision_var_1_ + 1 shared_cand_flow_1,4,2_ - 16.900456312320433 node_voltage_phase_angle_1,1,4,2_ + 16.900456312320433 node_voltage_phase_angle_3,2,4,2_ <= 5
c1011: -1 shared_line_decision_var_1_ + 1 shared_cand_flow_1,4,2_ <= 0
c1012: -1 shared_line_decision_var_1_ - 1 shared_cand_flow_1,4,2_ <= 0
c1013: 5 shared_line_decision_var_2_ - 1 shared_cand_flow_2,1,1_ - 4.483500717360115 node_voltage_phase_angle_1,2,1,1_ + 4.483500717360115 node_voltage_phase_angle_3,5,1,1_ <= 5
c1014: 5 shared_line_decision_var_2_ + 1 shared_cand_flow_2,1,1_ + 4.483500717360115 node_voltage_phase_angle_1,2,1,1_ - 4.483500717360115 node_voltage_phase_angle_3,5,1,1_ <= 5
c1015: -1 shared_line_decision_var_2_ + 1 shared_cand_flow_2,1,1_ <= 0
c1016: -1 shared_line_decision_var_2_ - 1 shared_cand_flow_2,1,1_ <= 0
c1017: 5 shared_line_decision_var_2_ - 1 shared_cand_flow_2,2,1_ - 4.483500717360115 node_voltage_phase_angle_1,2,2,1_ + 4.483500717360115 node_voltage_phase_angle_3,5,2,1_ <= 5
c1018: 5 shared_line_decision_var_2_ + 1 shared_cand_flow_2,2,1_ + 4.483500717360115 node_voltage_phase_angle_1,2,2,1_ - 4.483500717360115 node_voltage_phase_angle_3,5,2,1_ <= 5
c1019: -1 shared_line_decision_var_2_ + 1 shared_cand_flow_2,2,1_ <= 0
c1020: -1 shared_line_decision_var_2_ - 1 shared_cand_flow_2,2,1_ <= 0
c1021: 5 shared_line_decision_var_2_ - 1 shared_cand_flow_2,3,1_ - 4.483500717360115 node_voltage_phase_angle_1,2,3,1_ + 4.483500717360115 node_voltage_phase_angle_3,5,3,1_ <= 5
c1022: 5 shared_line_decision_var_2_ + 1 shared_cand_flow_2,3,1_ + 4.483500717360115 node_voltage_phase_angle_1,2,3,1_ - 4.483500717360115 node_voltage_phase_angle_3,5,3,1_ <= 5
c1023: -1 shared_line_decision_var_2_ + 1 shared_cand_flow_2,3,1_ <= 0
c1024: -1 shared_line_decision_var_2_ - 1 shared_cand_flow_2,3,1_ <= 0
c1025: 5 shared_line_decision_var_2_ - 1 shared_cand_flow_2,4,1_ - 4.483500717360115 node_voltage_phase_angle_1,2,4,1_ + 4.483500717360115 node_voltage_phase_angle_3,5,4,1_ <= 5
c1026: 5 shared_line_decision_var_2_ + 1 shared_cand_flow_2,4,1_ + 4.483500717360115 node_voltage_phase_angle_1,2,4,1_ - 4.483500717360115 node_voltage_phase_angle_3,5,4,1_ <= 5
c1027: -1 shared_line_decision_var_2_ + 1 shared_cand_flow_2,4,1_ <= 0
c1028: -1 shared_line_decision_var_2_ - 1 shared_cand_flow_2,4,1_ <= 0
c1029: 5 shared_line_decision_var_2_ - 1 shared_cand_flow_2,1,2_ - 4.483500717360115 node_voltage_phase_angle_1,2,1,2_ + 4.483500717360115 node_voltage_phase_angle_3,5,1,2_ <= 5
c1030: 5 shared_line_decision_var_2_ + 1 shared_cand_flow_2,1,2_ + 4.483500717360115 node_voltage_phase_angle_1,2,1,2_ - 4.483500717360115 node_voltage_phase_angle_3,5,1,2_ <= 5
c1031: -1 shared_line_decision_var_2_ + 1 shared_cand_flow_2,1,2_ <= 0
c1032: -1 shared_line_decision_var_2_ - 1 shared_cand_flow_2,1,2_ <= 0
c1033: 5 shared_line_decision_var_2_ - 1 shared_cand_flow_2,2,2_ - 4.483500717360115 node_voltage_phase_angle_1,2,2,2_ + 4.483500717360115 node_voltage_phase_angle_3,5,2,2_ <= 5
c1034: 5 shared_line_decision_var_2_ + 1 shared_cand_flow_2,2,2_ + 4.483500717360115 node_voltage_phase_angle_1,2,2,2_ - 4.483500717360115 node_voltage_phase_angle_3,5,2,2_ <= 5
c1035: -1 shared_line_decision_var_2_ + 1 shared_cand_flow_2,2,2_ <= 0
c1036: -1 shared_line_decision_var_2_ - 1 shared_cand_flow_2,2,2_ <= 0
c1037: 5 shared_line_decision_var_2_ - 1 shared_cand_flow_2,3,2_ - 4.483500717360115 node_voltage_phase_angle_1,2,3,2_ + 4.483500717360115 node_voltage_phase_angle_3,5,3,2_ <= 5
c1038: 5 shared_line_decision_var_2_ + 1 shared_cand_flow_2,3,2_ + 4.483500717360115 node_voltage_phase_angle_1,2,3,2_ - 4.483500717360115 node_voltage_phase_angle_3,5,3,2_ <= 5
c1039: -1 shared_line_decision_var_2_ + 1 shared_cand_flow_2,3,2_ <= 0
c1040: -1 shared_line_decision_var_2_ - 1 shared_cand_flow_2,3,2_ <= 0
c1041: 5 shared_line_decision_var_2_ - 1 shared_cand_flow_2,4,2_ - 4.483500717360115 node_voltage_phase_angle_1,2,4,2_ + 4.483500717360115 node_voltage_phase_angle_3,5,4,2_ <= 5
c1042: 5 shared_line_decision_var_2_ + 1 shared_cand_flow_2,4,2_ + 4.483500717360115 node_voltage_phase_angle_1,2,4,2_ - 4.483500717360115 node_voltage_phase_angle_3,5,4,2_ <= 5
c1043: -1 shared_line_decision_var_2_ + 1 shared_cand_flow_2,4,2_ <= 0
c1044: -1 shared_line_decision_var_2_ - 1 shared_cand_flow_2,4,2_ <= 0
c1045: 5 shared_line_decision_var_3_ - 1 shared_cand_flow_3,1,1_ + 5.051270394504217 node_voltage_phase_angle_1,10,1,1_ - 5.051270394504217 node_voltage_phase_angle_3,4,1,1_ <= 5
c1046: 5 shared_line_decision_var_3_ + 1 shared_cand_flow_3,1,1_ - 5.051270394504217 node_voltage_phase_angle_1,10,1,1_ + 5.051270394504217 node_voltage_phase_angle_3,4,1,1_ <= 5
c1047: -1 shared_line_decision_var_3_ + 1 shared_cand_flow_3,1,1_ <= 0
c1048: -1 shared_line_decision_var_3_ - 1 shared_cand_flow_3,1,1_ <= 0
c1049: 5 shared_line_decision_var_3_ - 1 shared_cand_flow_3,2,1_ + 5.051270394504217 node_voltage_phase_angle_1,10,2,1_ - 5.051270394504217 node_voltage_phase_angle_3,4,2,1_ <= 5
c1050: 5 shared_line_decision_var_3_ + 1 shared_cand_flow_3,2,1_ - 5.051270394504217 node_voltage_phase_angle_1,10,2,1_ + 5.051270394504217 node_voltage_phase_angle_3,4,2,1_ <= 5
c1051: -1 shared_line_decision_var_3_ + 1 shared_cand_flow_3,2,1_ <= 0
c1052: -1 shared_line_decision_var_3_ - 1 shared_cand_flow_3,2,1_ <= 0
c1053: 5 shared_line_decision_var_3_ - 1 shared_cand_flow_3,3,1_ + 5.051270394504217 node_voltage_phase_angle_1,10,3,1_ - 5.051270394504217 node_voltage_phase_angle_3,4,3,1_ <= 5
c1054: 5 shared_line_decision_var_3_ + 1 shared_cand_flow_3,3,1_ - 5.051270394504217 node_voltage_phase_angle_1,10,3,1_ + 5.051270394504217 node_voltage_phase_angle_3,4,3,1_ <= 5
c1055: -1 shared_line_decision_var_3_ + 1 shared_cand_flow_3,3,1_ <= 0
c1056: -1 shared_line_decision_var_3_ - 1 shared_cand_flow_3,3,1_ <= 0
c1057: 5 shared_line_decision_var_3_ - 1 shared_cand_flow_3,4,1_ + 5.051270394504217 node_voltage_phase_angle_1,10,4,1_ - 5.051270394504217 node_voltage_phase_angle_3,4,4,1_ <= 5
c1058: 5 shared_line_decision_var_3_ + 1 shared_cand_flow_3,4,1_ - 5.051270394504217 node_voltage_phase_angle_1,10,4,1_ + 5.051270394504217 node_voltage_phase_angle_3,4,4,1_ <= 5
c1059: -1 shared_line_decision_var_3_ + 1 shared_cand_flow_3,4,1_ <= 0
c1060: -1 shared_line_decision_var_3_ - 1 shared_cand_flow_3,4,1_ <= 0
c1061: 5 shared_line_decision_var_3_ - 1 shared_cand_flow_3,1,2_ + 5.051270394504217 node_voltage_phase_angle_1,10,1,2_ - 5.051270394504217 node_voltage_phase_angle_3,4,1,2_ <= 5
c1062: 5 shared_line_decision_var_3_ + 1 shared_cand_flow_3,1,2_ - 5.051270394504217 node_voltage_phase_angle_1,10,1,2_ + 5.051270394504217 node_voltage_phase_angle_3,4,1,2_ <= 5
c1063: -1 shared_line_decision_var_3_ + 1 shared_cand_flow_3,1,2_ <= 0
c1064: -1 shared_line_decision_var_3_ - 1 shared_cand_flow_3,1,2_ <= 0
c1065: 5 shared_line_decision_var_3_ - 1 shared_cand_flow_3,2,2_ + 5.051270394504217 node_voltage_phase_angle_1,10,2,2_ - 5.051270394504217 node_voltage_phase_angle_3,4,2,2_ <= 5
c1066: 5 shared_line_decision_var_3_ + 1 shared_cand_flow_3,2,2_ - 5.051270394504217 node_voltage_phase_angle_1,10,2,2_ + 5.051270394504217 node_voltage_phase_angle_3,4,2,2_ <= 5
c1067: -1 shared_line_decision_var_3_ + 1 shared_cand_flow_3,2,2_ <= 0
c1068: -1 shared_line_decision_var_3_ - 1 shared_cand_flow_3,2,2_ <= 0
c1069: 5 shared_line_decision_var_3_ - 1 shared_cand_flow_3,3,2_ + 5.051270394504217 node_voltage_phase_angle_1,10,3,2_ - 5.051270394504217 node_voltage_phase_angle_3,4,3,2_ <= 5
c1070: 5 shared_line_decision_var_3_ + 1 shared_cand_flow_3,3,2_ - 5.051270394504217 node_voltage_phase_angle_1,10,3,2_ + 5.051270394504217 node_voltage_phase_angle_3,4,3,2_ <= 5
c1071: -1 shared_line_decision_var_3_ + 1 shared_cand_flow_3,3,2_ <= 0
c1072: -1 shared_line_decision_var_3_ - 1 shared_cand_flow_3,3,2_ <= 0
c1073: 5 shared_line_decision_var_3_ - 1 shared_cand_flow_3,4,2_ + 5.051270394504217 node_voltage_phase_angle_1,10,4,2_ - 5.051270394504217 node_voltage_phase_angle_3,4,4,2_ <= 5
c1074: 5 shared_line_decision_var_3_ + 1 shared_cand_flow_3,4,2_ - 5.051270394504217 node_voltage_phase_angle_1,10,4,2_ + 5.051270394504217 node_voltage_phase_angle_3,4,4,2_ <= 5
c1075: -1 shared_line_decision_var_3_ + 1 shared_cand_flow_3,4,2_ <= 0
c1076: -1 shared_line_decision_var_3_ - 1 shared_cand_flow_3,4,2_ <= 0
c1077: 5 shared_line_decision_var_4_ - 1 shared_cand_flow_4,1,1_ - 17.391304347826086 node_voltage_phase_angle_1,14,1,1_ + 17.391304347826086 node_voltage_phase_angle_2,19,1,1_ <= 5
c1078: 5 shared_line_decision_var_4_ + 1 shared_cand_flow_4,1,1_ + 17.391304347826086 node_voltage_phase_angle_1,14,1,1_ - 17.391304347826086 node_voltage_phase_angle_2,19,1,1_ <= 5
c1079: -1 shared_line_decision_var_4_ + 1 shared_cand_flow_4,1,1_ <= 0
c1080: -1 shared_line_decision_var_4_ - 1 shared_cand_flow_4,1,1_ <= 0
c1081: 5 shared_line_decision_var_4_ - 1 shared_cand_flow_4,2,1_ - 17.391304347826086 node_voltage_phase_angle_1,14,2,1_ + 17.391304347826086 node_voltage_phase_angle_2,19,2,1_ <= 5
c1082: 5 shared_line_decision_var_4_ + 1 shared_cand_flow_4,2,1_ + 17.391304347826086 node_voltage_phase_angle_1,14,2,1_ - 17.391304347826086 node_voltage_phase_angle_2,19,2,1_ <= 5
c1083: -1 shared_line_decision_var_4_ + 1 shared_cand_flow_4,2,1_ <= 0
c1084: -1 shared_line_decision_var_4_ - 1 shared_cand_flow_4,2,1_ <= 0
c1085: 5 shared_line_decision_var_4_ - 1 shared_cand_flow_4,3,1_ - 17.391304347826086 node_voltage_phase_angle_1,14,3,1_ + 17.391304347826086 node_voltage_phase_angle_2,19,3,1_ <= 5
c1086: 5 shared_line_decision_var_4_ + 1 shared_cand_flow_4,3,1_ + 17.391304347826086 node_voltage_phase_angle_1,14,3,1_ - 17.391304347826086 node_voltage_phase_angle_2,19,3,1_ <= 5
c1087: -1 shared_line_decision_var_4_ + 1 shared_cand_flow_4,3,1_ <= 0
c1088: -1 shared_line_decision_var_4_ - 1 shared_cand_flow_4,3,1_ <= 0
c1089: 5 shared_line_decision_var_4_ - 1 shared_cand_flow_4,4,1_ - 17.391304347826086 node_voltage_phase_angle_1,14,4,1_ + 17.391304347826086 node_voltage_phase_angle_2,19,4,1_ <= 5
c1090: 5 shared_line_decision_var_4_ + 1 shared_cand_flow_4,4,1_ + 17.391304347826086 node_voltage_phase_angle_1,14,4,1_ - 17.391304347826086 node_voltage_phase_angle_2,19,4,1_ <= 5
c1091: -1 shared_line_decision_var_4_ + 1 shared_cand_flow_4,4,1_ <= 0
c1092: -1 shared_line_decision_var_4_ - 1 shared_cand_flow_4,4,1_ <= 0
c1093: 5 shared_line_decision_var_4_ - 1 shared_cand_flow_4,1,2_ - 17.391304347826086 node_voltage_phase_angle_1,14,1,2_ + 17.391304347826086 node_voltage_phase_angle_2,19,1,2_ <= 5
c1094: 5 shared_line_decision_var_4_ + 1 shared_cand_flow_4,1,2_ + 17.391304347826086 node_voltage_phase_angle_1,14,1,2_ - 17.391304347826086 node_voltage_phase_angle_2,19,1,2_ <= 5
c1095: -1 shared_line_decision_var_4_ + 1 shared_cand_flow_4,1,2_ <= 0
c1096: -1 shared_line_decision_var_4_ - 1 shared_cand_flow_4,1,2_ <= 0
c1097: 5 shared_line_decision_var_4_ - 1 shared_cand_flow_4,2,2_ - 17.391304347826086 node_voltage_phase_angle_1,14,2,2_ + 17.391304347826086 node_voltage_phase_angle_2,19,2,2_ <= 5
c1098: 5 shared_line_decision_var_4_ + 1 shared_cand_flow_4,2,2_ + 17.391304347826086 node_voltage_phase_angle_1,14,2,2_ - 17.391304347826086 node_voltage_phase_angle_2,19,2,2_ <= 5
c1099: -1 shared_line_decision_var_4_ + 1 shared_cand_flow_4,2,2_ <= 0
c1100: -1 shared_line_decision_var_4_ - 1 shared_cand_flow_4,2,2_ <= 0
c1101: 5 shared_line_decision_var_4_ - 1 shared_cand_flow_4,3,2_ - 17.391304347826086 node_voltage_phase_angle_1,14,3,2_ + 17.391304347826086 node_voltage_phase_angle_2,19,3,2_ <= 5
c1102: 5 shared_line_decision_var_4_ + 1 shared_cand_flow_4,3,2_ + 17.391304347826086 node_voltage_phase_angle_1,14,3,2_ - 17.391304347826086 node_voltage_phase_angle_2,19,3,2_ <= 5
c1103: -1 shared_line_decision_var_4_ + 1 shared_cand_flow_4,3,2_ <= 0
c1104: -1 shared_line_decision_var_4_ - 1 shared_cand_flow_4,3,2_ <= 0
c1105: 5 shared_line_decision_var_4_ - 1 shared_cand_flow_4,4,2_ - 17.391304347826086 node_voltage_phase_angle_1,14,4,2_ + 17.391304347826086 node_voltage_phase_angle_2,19,4,2_ <= 5
c1106: 5 shared_line_decision_var_4_ + 1 shared_cand_flow_4,4,2_ + 17.391304347826086 node_voltage_phase_angle_1,14,4,2_ - 17.391304347826086 node_voltage_phase_angle_2,19,4,2_ <= 5
c1107: -1 shared_line_decision_var_4_ + 1 shared_cand_flow_4,4,2_ <= 0
c1108: -1 shared_line_decision_var_4_ - 1 shared_cand_flow_4,4,2_ <= 0
c1109: 5 shared_line_decision_var_5_ - 1 shared_cand_flow_5,1,1_ + 6.053268765133171 node_voltage_phase_angle_2,23,1,1_ - 6.053268765133171 node_voltage_phase_angle_3,4,1,1_ <= 5
c1110: 5 shared_line_decision_var_5_ + 1 shared_cand_flow_5,1,1_ - 6.053268765133171 node_voltage_phase_angle_2,23,1,1_ + 6.053268765133171 node_voltage_phase_angle_3,4,1,1_ <= 5
c1111: -1 shared_line_decision_var_5_ + 1 shared_cand_flow_5,1,1_ <= 0
c1112: -1 shared_line_decision_var_5_ - 1 shared_cand_flow_5,1,1_ <= 0
c1113: 5 shared_line_decision_var_5_ - 1 shared_cand_flow_5,2,1_ + 6.053268765133171 node_voltage_phase_angle_2,23,2,1_ - 6.053268765133171 node_voltage_phase_angle_3,4,2,1_ <= 5
c1114: 5 shared_line_decision_var_5_ + 1 shared_cand_flow_5,2,1_ - 6.053268765133171 node_voltage_phase_angle_2,23,2,1_ + 6.053268765133171 node_voltage_phase_angle_3,4,2,1_ <= 5
c1115: -1 shared_line_decision_var_5_ + 1 shared_cand_flow_5,2,1_ <= 0
c1116: -1 shared_line_decision_var_5_ - 1 shared_cand_flow_5,2,1_ <= 0
c1117: 5 shared_line_decision_var_5_ - 1 shared_cand_flow_5,3,1_ + 6.053268765133171 node_voltage_phase_angle_2,23,3,1_ - 6.053268765133171 node_voltage_phase_angle_3,4,3,1_ <= 5
c1118: 5 shared_line_decision_var_5_ + 1 shared_cand_flow_5,3,1_ - 6.053268765133171 node_voltage_phase_angle_2,23,3,1_ + 6.053268765133171 node_voltage_phase_angle_3,4,3,1_ <= 5
c1119: -1 shared_line_decision_var_5_ + 1 shared_cand_flow_5,3,1_ <= 0
c1120: -1 shared_line_decision_var_5_ - 1 shared_cand_flow_5,3,1_ <= 0
c1121: 5 shared_line_decision_var_5_ - 1 shared_cand_flow_5,4,1_ + 6.053268765133171 node_voltage_phase_angle_2,23,4,1_ - 6.053268765133171 node_voltage_phase_angle_3,4,4,1_ <= 5
c1122: 5 shared_line_decision_var_5_ + 1 shared_cand_flow_5,4,1_ - 6.053268765133171 node_voltage_phase_angle_2,23,4,1_ + 6.053268765133171 node_voltage_phase_angle_3,4,4,1_ <= 5
c1123: -1 shared_line_decision_var_5_ + 1 shared_cand_flow_5,4,1_ <= 0
c1124: -1 shared_line_decision_var_5_ - 1 shared_cand_flow_5,4,1_ <= 0
c1125: 5 shared_line_decision_var_5_ - 1 shared_cand_flow_5,1,2_ + 6.053268765133171 node_voltage_phase_angle_2,23,1,2_ - 6.053268765133171 node_voltage_phase_angle_3,4,1,2_ <= 5
c1126: 5 shared_line_decision_var_5_ + 1 shared_cand_flow_5,1,2_ - 6.053268765133171 node_voltage_phase_angle_2,23,1,2_ + 6.053268765133171 node_voltage_phase_angle_3,4,1,2_ <= 5
c1127: -1 shared_line_decision_var_5_ + 1 shared_cand_flow_5,1,2_ <= 0
c1128: -1 shared_line_decision_var_5_ - 1 shared_cand_flow_5,1,2_ <= 0
c1129: 5 shared_line_decision_var_5_ - 1 shared_cand_flow_5,2,2_ + 6.053268765133171 node_voltage_phase_angle_2,23,2,2_ - 6.053268765133171 node_voltage_phase_angle_3,4,2,2_ <= 5
c1130: 5 shared_line_decision_var_5_ + 1 shared_cand_flow_5,2,2_ - 6.053268765133171 node_voltage_phase_angle_2,23,2,2_ + 6.053268765133171 node_voltage_phase_angle_3,4,2,2_ <= 5
c1131: -1 shared_line_decision_var_5_ + 1 shared_cand_flow_5,2,2_ <= 0
c1132: -1 shared_line_decision_var_5_ - 1 shared_cand_flow_5,2,2_ <= 0
c1133: 5 shared_line_decision_var_5_ - 1 shared_cand_flow_5,3,2_ + 6.053268765133171 node_voltage_phase_angle_2,23,3,2_ - 6.053268765133171 node_voltage_phase_angle_3,4,3,2_ <= 5
c1134: 5 shared_line_decision_var_5_ + 1 shared_cand_flow_5,3,2_ - 6.053268765133171 node_voltage_phase_angle_2,23,3,2_ + 6.053268765133171 node_voltage_phase_angle_3,4,3,2_ <= 5
c1135: -1 shared_line_decision_var_5_ + 1 shared_cand_flow_5,3,2_ <= 0
c1136: -1 shared_line_decision_var_5_ - 1 shared_cand_flow_5,3,2_ <= 0
c1137: 5 shared_line_decision_var_5_ - 1 shared_cand_flow_5,4,2_ + 6.053268765133171 node_voltage_phase_angle_2,23,4,2_ - 6.053268765133171 node_voltage_phase_angle_3,4,4,2_ <= 5
c1138: 5 shared_line_decision_var_5_ + 1 shared_cand_flow_5,4,2_ - 6.053268765133171 node_voltage_phase_angle_2,23,4,2_ + 6.053268765133171 node_voltage_phase_angle_3,4,4,2_ <= 5
c1139: -1 shared_line_decision_var_5_ + 1 shared_cand_flow_5,4,2_ <= 0
c1140: -1 shared_line_decision_var_5_ - 1 shared_cand_flow_5,4,2_ <= 0
c1141: 5 shared_line_decision_var_6_ - 1 shared_cand_flow_6,1,1_ - 5.757052389176741 node_voltage_phase_angle_2,15,1,1_ + 5.757052389176741 node_voltage_phase_angle_3,2,1,1_ <= 5
c1142: 5 shared_line_decision_var_6_ + 1 shared_cand_flow_6,1,1_ + 5.757052389176741 node_voltage_phase_angle_2,15,1,1_ - 5.757052389176741 node_voltage_phase_angle_3,2,1,1_ <= 5
c1143: -1 shared_line_decision_var_6_ + 1 shared_cand_flow_6,1,1_ <= 0
c1144: -1 shared_line_decision_var_6_ - 1 shared_cand_flow_6,1,1_ <= 0
c1145: 5 shared_line_decision_var_6_ - 1 shared_cand_flow_6,2,1_ - 5.757052389176741 node_voltage_phase_angle_2,15,2,1_ + 5.757052389176741 node_voltage_phase_angle_3,2,2,1_ <= 5
c1146: 5 shared_line_decision_var_6_ + 1 shared_cand_flow_6,2,1_ + 5.757052389176741 node_voltage_phase_angle_2,15,2,1_ - 5.757052389176741 node_voltage_phase_angle_3,2,2,1_ <= 5
c1147: -1 shared_line_decision_var_6_ + 1 shared_cand_flow_6,2,1_ <= 0
c1148: -1 shared_line_decision_var_6_ - 1 shared_cand_flow_6,2,1_ <= 0
c1149: 5 shared_line_decision_var_6_ - 1 shared_cand_flow_6,3,1_ - 5.757052389176741 node_voltage_phase_angle_2,15,3,1_ + 5.757052389176741 node_voltage_phase_angle_3,2,3,1_ <= 5
c1150: 5 shared_line_decision_var_6_ + 1 shared_cand_flow_6,3,1_ + 5.757052389176741 node_voltage_phase_angle_2,15,3,1_ - 5.757052389176741 node_voltage_phase_angle_3,2,3,1_ <= 5
c1151: -1 shared_line_decision_var_6_ + 1 shared_cand_flow_6,3,1_ <= 0
c1152: -1 shared_line_decision_var_6_ - 1 shared_cand_flow_6,3,1_ <= 0
c1153: 5 shared_line_decision_var_6_ - 1 shared_cand_flow_6,4,1_ - 5.757052389176741 node_voltage_phase_angle_2,15,4,1_ + 5.757052389176741 node_voltage_phase_angle_3,2,4,1_ <= 5
c1154: 5 shared_line_decision_var_6_ + 1 shared_cand_flow_6,4,1_ + 5.757052389176741 node_voltage_phase_angle_2,15,4,1_ - 5.757052389176741 node_voltage_phase_angle_3,2,4,1_ <= 5
c1155: -1 shared_line_decision_var_6_ + 1 shared_cand_flow_6,4,1_ <= 0
c1156: -1 shared_line_decision_var_6_ - 1 shared_cand_flow_6,4,1_ <= 0
c1157: 5 shared_line_decision_var_6_ - 1 shared_cand_flow_6,1,2_ - 5.757052389176741 node_voltage_phase_angle_2,15,1,2_ + 5.757052389176741 node_voltage_phase_angle_3,2,1,2_ <= 5
c1158: 5 shared_line_decision_var_6_ + 1 shared_cand_flow_6,1,2_ + 5.757052389176741 node_voltage_phase_angle_2,15,1,2_ - 5.757052389176741 node_voltage_phase_angle_3,2,1,2_ <= 5
c1159: -1 shared_line_decision_var_6_ + 1 shared_cand_flow_6,1,2_ <= 0
c1160: -1 shared_line_decision_var_6_ - 1 shared_cand_flow_6,1,2_ <= 0
c1161: 5 shared_line_decision_var_6_ - 1 shared_cand_flow_6,2,2_ - 5.757052389176741 node_voltage_phase_angle_2,15,2,2_ + 5.757052389176741 node_voltage_phase_angle_3,2,2,2_ <= 5
c1162: 5 shared_line_decision_var_6_ + 1 shared_cand_flow_6,2,2_ + 5.757052389176741 node_voltage_phase_angle_2,15,2,2_ - 5.757052389176741 node_voltage_phase_angle_3,2,2,2_ <= 5
c1163: -1 shared_line_decision_var_6_ + 1 shared_cand_flow_6,2,2_ <= 0
c1164: -1 shared_line_decision_var_6_ - 1 shared_cand_flow_6,2,2_ <= 0
c1165: 5 shared_line_decision_var_6_ - 1 shared_cand_flow_6,3,2_ - 5.757052389176741 node_voltage_phase_angle_2,15,3,2_ + 5.757052389176741 node_voltage_phase_angle_3,2,3,2_ <= 5
c1166: 5 shared_line_decision_var_6_ + 1 shared_cand_flow_6,3,2_ + 5.757052389176741 node_voltage_phase_angle_2,15,3,2_ - 5.757052389176741 node_voltage_phase_angle_3,2,3,2_ <= 5
c1167: -1 shared_line_decision_var_6_ + 1 shared_cand_flow_6,3,2_ <= 0
c1168: -1 shared_line_decision_var_6_ - 1 shared_cand_flow_6,3,2_ <= 0
c1169: 5 shared_line_decision_var_6_ - 1 shared_cand_flow_6,4,2_ - 5.757052389176741 node_voltage_phase_angle_2,15,4,2_ + 5.757052389176741 node_voltage_phase_angle_3,2,4,2_ <= 5
c1170: 5 shared_line_decision_var_6_ + 1 shared_cand_flow_6,4,2_ + 5.757052389176741 node_voltage_phase_angle_2,15,4,2_ - 5.757052389176741 node_voltage_phase_angle_3,2,4,2_ <= 5
c1171: -1 shared_line_decision_var_6_ + 1 shared_cand_flow_6,4,2_ <= 0
c1172: -1 shared_line_decision_var_6_ - 1 shared_cand_flow_6,4,2_ <= 0
c1173: 1 shared_ex_flow_1,1,1_ <= 1
c1174: -1 shared_ex_flow_1,1,1_ <= 1
c1175: 1 shared_ex_flow_1,2,1_ <= 1
c1176: -1 shared_ex_flow_1,2,1_ <= 1
c1177: 1 shared_ex_flow_1,3,1_ <= 1
c1178: -1 shared_ex_flow_1,3,1_ <= 1
c1179: 1 shared_ex_flow_1,4,1_ <= 1
c1180: -1 shared_ex_flow_1,4,1_ <= 1
c1181: 1 shared_ex_flow_1,1,2_ <= 1
c1182: -1 shared_ex_flow_1,1,2_ <= 1
c1183: 1 shared_ex_flow_1,2,2_ <= 1
c1184: -1 shared_ex_flow_1,2,2_ <= 1
c1185: 1 shared_ex_flow_1,3,2_ <= 1
c1186: -1 shared_ex_flow_1,3,2_ <= 1
c1187: 1 shared_ex_flow_1,4,2_ <= 1
c1188: -1 shared_ex_flow_1,4,2_ <= 1
c1189: 1 shared_ex_flow_2,1,1_ <= 1
c1190: -1 shared_ex_flow_2,1,1_ <= 1
c1191: 1 shared_ex_flow_2,2,1_ <= 1
c1192: -1 shared_ex_flow_2,2,1_ <= 1
c1193: 1 shared_ex_flow_2,3,1_ <= 1
c1194: -1 shared_ex_flow_2,3,1_ <= 1
c1195: 1 shared_ex_flow_2,4,1_ <= 1
c1196: -1 shared_ex_flow_2,4,1_ <= 1
c1197: 1 shared_ex_flow_2,1,2_ <= 1
c1198: -1 shared_ex_flow_2,1,2_ <= 1
c1199: 1 shared_ex_flow_2,2,2_ <= 1
c1200: -1 shared_ex_flow_2,2,2_ <= 1
c1201: 1 shared_ex_flow_2,3,2_ <= 1
c1202: -1 shared_ex_flow_2,3,2_ <= 1
c1203: 1 shared_ex_flow_2,4,2_ <= 1
c1204: -1 shared_ex_flow_2,4,2_ <= 1
c1205: 1 shared_ex_flow_3,1,1_ <= 1
c1206: -1 shared_ex_flow_3,1,1_ <= 1
c1207: 1 shared_ex_flow_3,2,1_ <= 1
c1208: -1 shared_ex_flow_3,2,1_ <= 1
c1209: 1 shared_ex_flow_3,3,1_ <= 1
c1210: -1 shared_ex_flow_3,3,1_ <= 1
c1211: 1 shared_ex_flow_3,4,1_ <= 1
c1212: -1 shared_ex_flow_3,4,1_ <= 1
c1213: 1 shared_ex_flow_3,1,2_ <= 1
c1214: -1 shared_ex_flow_3,1,2_ <= 1
c1215: 1 shared_ex_flow_3,2,2_ <= 1
c1216: -1 shared_ex_flow_3,2,2_ <= 1
c1217: 1 shared_ex_flow_3,3,2_ <= 1
c1218: -1 shared_ex_flow_3,3,2_ <= 1
c1219: 1 shared_ex_flow_3,4,2_ <= 1
c1220: -1 shared_ex_flow_3,4,2_ <= 1
c1221: 1 shared_ex_flow_4,1,1_ <= 1
c1222: -1 shared_ex_flow_4,1,1_ <= 1
c1223: 1 shared_ex_flow_4,2,1_ <= 1
c1224: -1 shared_ex_flow_4,2,1_ <= 1
c1225: 1 shared_ex_flow_4,3,1_ <= 1
c1226: -1 shared_ex_flow_4,3,1_ <= 1
c1227: 1 shared_ex_flow_4,4,1_ <= 1
c1228: -1 shared_ex_flow_4,4,1_ <= 1
c1229: 1 shared_ex_flow_4,1,2_ <= 1
c1230: -1 shared_ex_flow_4,1,2_ <= 1
c1231: 1 shared_ex_flow_4,2,2_ <= 1
c1232: -1 shared_ex_flow_4,2,2_ <= 1
c1233: 1 shared_ex_flow_4,3,2_ <= 1
c1234: -1 shared_ex_flow_4,3,2_ <= 1
c1235: 1 shared_ex_flow_4,4,2_ <= 1
c1236: -1 shared_ex_flow_4,4,2_ <= 1
c1237: 1 shared_ex_flow_5,1,1_ <= 1
c1238: -1 shared_ex_flow_5,1,1_ <= 1
c1239: 1 shared_ex_flow_5,2,1_ <= 1
c1240: -1 shared_ex_flow_5,2,1_ <= 1
c1241: 1 shared_ex_flow_5,3,1_ <= 1
c1242: -1 shared_ex_flow_5,3,1_ <= 1
c1243: 1 shared_ex_flow_5,4,1_ <= 1
c1244: -1 shared_ex_flow_5,4,1_ <= 1
c1245: 1 shared_ex_flow_5,1,2_ <= 1
c1246: -1 shared_ex_flow_5,1,2_ <= 1
c1247: 1 shared_ex_flow_5,2,2_ <= 1
c1248: -1 shared_ex_flow_5,2,2_ <= 1
c1249: 1 shared_ex_flow_5,3,2_ <= 1
c1250: -1 shared_ex_flow_5,3,2_ <= 1
c1251: 1 shared_ex_flow_5,4,2_ <= 1
c1252: -1 shared_ex_flow_5,4,2_ <= 1
c1253: 1 shared_ex_flow_6,1,1_ <= 1
c1254: -1 shared_ex_flow_6,1,1_ <= 1
c1255: 1 shared_ex_flow_6,2,1_ <= 1
c1256: -1 shared_ex_flow_6,2,1_ <= 1
c1257: 1 shared_ex_flow_6,3,1_ <= 1
c1258: -1 shared_ex_flow_6,3,1_ <= 1
c1259: 1 shared_ex_flow_6,4,1_ <= 1
c1260: -1 shared_ex_flow_6,4,1_ <= 1
c1261: 1 shared_ex_flow_6,1,2_ <= 1
c1262: -1 shared_ex_flow_6,1,2_ <= 1
c1263: 1 shared_ex_flow_6,2,2_ <= 1
c1264: -1 shared_ex_flow_6,2,2_ <= 1
c1265: 1 shared_ex_flow_6,3,2_ <= 1
c1266: -1 shared_ex_flow_6,3,2_ <= 1
c1267: 1 shared_ex_flow_6,4,2_ <= 1
c1268: -1 shared_ex_flow_6,4,2_ <= 1
c1269: 1 shared_ex_flow_7,1,1_ <= 1
c1270: -1 shared_ex_flow_7,1,1_ <= 1
c1271: 1 shared_ex_flow_7,2,1_ <= 1
c1272: -1 shared_ex_flow_7,2,1_ <= 1
c1273: 1 shared_ex_flow_7,3,1_ <= 1
c1274: -1 shared_ex_flow_7,3,1_ <= 1
c1275: 1 shared_ex_flow_7,4,1_ <= 1
c1276: -1 shared_ex_flow_7,4,1_ <= 1
c1277: 1 shared_ex_flow_7,1,2_ <= 1
c1278: -1 shared_ex_flow_7,1,2_ <= 1
c1279: 1 shared_ex_flow_7,2,2_ <= 1
c1280: -1 shared_ex_flow_7,2,2_ <= 1
c1281: 1 shared_ex_flow_7,3,2_ <= 1
c1282: -1 shared_ex_flow_7,3,2_ <= 1
c1283: 1 shared_ex_flow_7,4,2_ <= 1
c1284: -1 shared_ex_flow_7,4,2_ <= 1
c1285: 1 shared_ex_flow_8,1,1_ <= 1
c1286: -1 shared_ex_flow_8,1,1_ <= 1
c1287: 1 shared_ex_flow_8,2,1_ <= 1
c1288: -1 shared_ex_flow_8,2,1_ <= 1
c1289: 1 shared_ex_flow_8,3,1_ <= 1
c1290: -1 shared_ex_flow_8,3,1_ <= 1
c1291: 1 shared_ex_flow_8,4,1_ <= 1
c1292: -1 shared_ex_flow_8,4,1_ <= 1
c1293: 1 shared_ex_flow_8,1,2_ <= 1
c1294: -1 shared_ex_flow_8,1,2_ <= 1
c1295: 1 shared_ex_flow_8,2,2_ <= 1
c1296: -1 shared_ex_flow_8,2,2_ <= 1
c1297: 1 shared_ex_flow_8,3,2_ <= 1
c1298: -1 shared_ex_flow_8,3,2_ <= 1
c1299: 1 shared_ex_flow_8,4,2_ <= 1
c1300: -1 shared_ex_flow_8,4,2_ <= 1
c1301: 5 int_line_decision_var_1_1_ - 1 int_cand_flow_1_1,1,1_ - 5.051270394504217 node_voltage_phase_angle_1,4,1,1_ + 5.051270394504217 node_voltage_phase_angle_1,5,1,1_ <= 5
c1302: 5 int_line_decision_var_1_1_ + 1 int_cand_flow_1_1,1,1_ + 5.051270394504217 node_voltage_phase_angle_1,4,1,1_ - 5.051270394504217 node_voltage_phase_angle_1,5,1,1_ <= 5
c1303: -1 int_line_decision_var_1_1_ + 1 int_cand_flow_1_1,1,1_ <= 0
c1304: -1 int_line_decision_var_1_1_ - 1 int_cand_flow_1_1,1,1_ <= 0
c1305: 5 int_line_decision_var_1_1_ - 1 int_cand_flow_1_1,2,1_ - 5.051270394504217 node_voltage_phase_angle_1,4,2,1_ + 5.051270394504217 node_voltage_phase_angle_1,5,2,1_ <= 5
c1306: 5 int_line_decision_var_1_1_ + 1 int_cand_flow_1_1,2,1_ + 5.051270394504217 node_voltage_phase_angle_1,4,2,1_ - 5.051270394504217 node_voltage_phase_angle_1,5,2,1_ <= 5
c1307: -1 int_line_decision_var_1_1_ + 1 int_cand_flow_1_1,2,1_ <= 0
c1308: -1 int_line_decision_var_1_1_ - 1 int_cand_flow_1_1,2,1_ <= 0
c1309: 5 int_line_decision_var_1_1_ - 1 int_cand_flow_1_1,3,1_ - 5.051270394504217 node_voltage_phase_angle_1,4,3,1_ + 5.051270394504217 node_voltage_phase_angle_1,5,3,1_ <= 5
c1310: 5 int_line_decision_var_1_1_ + 1 int_cand_flow_1_1,3,1_ + 5.051270394504217 node_voltage_phase_angle_1,4,3,1_ - 5.051270394504217 node_voltage_phase_angle_1,5,3,1_ <= 5
c1311: -1 int_line_decision_var_1_1_ + 1 int_cand_flow_1_1,3,1_ <= 0
c1312: -1 int_line_decision_var_1_1_ - 1 int_cand_flow_1_1,3,1_ <= 0
c1313: 5 int_line_decision_var_1_1_ - 1 int_cand_flow_1_1,4,1_ - 5.051270394504217 node_voltage_phase_angle_1,4,4,1_ + 5.051270394504217 node_voltage_phase_angle_1,5,4,1_ <= 5
c1314: 5 int_line_decision_var_1_1_ + 1 int_cand_flow_1_1,4,1_ + 5.051270394504217 node_voltage_phase_angle_1,4,4,1_ - 5.051270394504217 node_voltage_phase_angle_1,5,4,1_ <= 5
c1315: -1 int_line_decision_var_1_1_ + 1 int_cand_flow_1_1,4,1_ <= 0
c1316: -1 int_line_decision_var_1_1_ - 1 int_cand_flow_1_1,4,1_ <= 0
c1317: 5 int_line_decision_var_1_1_ - 1 int_cand_flow_1_1,1,2_ - 5.051270394504217 node_voltage_phase_angle_1,4,1,2_ + 5.051270394504217 node_voltage_phase_angle_1,5,1,2_ <= 5
c1318: 5 int_line_decision_var_1_1_ + 1 int_cand_flow_1_1,1,2_ + 5.051270394504217 node_voltage_phase_angle_1,4,1,2_ - 5.051270394504217 node_voltage_phase_angle_1,5,1,2_ <= 5
c1319: -1 int_line_decision_var_1_1_ + 1 int_cand_flow_1_1,1,2_ <= 0
c1320: -1 int_line_decision_var_1_1_ - 1 int_cand_flow_1_1,1,2_ <= 0
c1321: 5 int_line_decision_var_1_1_ - 1 int_cand_flow_1_1,2,2_ - 5.051270394504217 node_voltage_phase_angle_1,4,2,2_ + 5.051270394504217 node_voltage_phase_angle_1,5,2,2_ <= 5
c1322: 5 int_line_decision_var_1_1_ + 1 int_cand_flow_1_1,2,2_ + 5.051270394504217 node_voltage_phase_angle_1,4,2,2_ - 5.051270394504217 node_voltage_phase_angle_1,5,2,2_ <= 5
c1323: -1 int_line_decision_var_1_1_ + 1 int_cand_flow_1_1,2,2_ <= 0
c1324: -1 int_line_decision_var_1_1_ - 1 int_cand_flow_1_1,2,2_ <= 0
c1325: 5 int_line_decision_var_1_1_ - 1 int_cand_flow_1_1,3,2_ - 5.051270394504217 node_voltage_phase_angle_1,4,3,2_ + 5.051270394504217 node_voltage_phase_angle_1,5,3,2_ <= 5
c1326: 5 int_line_decision_var_1_1_ + 1 int_cand_flow_1_1,3,2_ + 5.051270394504217 node_voltage_phase_angle_1,4,3,2_ - 5.051270394504217 node_voltage_phase_angle_1,5,3,2_ <= 5
c1327: -1 int_line_decision_var_1_1_ + 1 int_cand_flow_1_1,3,2_ <= 0
c1328: -1 int_line_decision_var_1_1_ - 1 int_cand_flow_1_1,3,2_ <= 0
c1329: 5 int_line_decision_var_1_1_ - 1 int_cand_flow_1_1,4,2_ - 5.051270394504217 node_voltage_phase_angle_1,4,4,2_ + 5.051270394504217 node_voltage_phase_angle_1,5,4,2_ <= 5
c1330: 5 int_line_decision_var_1_1_ + 1 int_cand_flow_1_1,4,2_ + 5.051270394504217 node_voltage_phase_angle_1,4,4,2_ - 5.051270394504217 node_voltage_phase_angle_1,5,4,2_ <= 5
c1331: -1 int_line_decision_var_1_1_ + 1 int_cand_flow_1_1,4,2_ <= 0
c1332: -1 int_line_decision_var_1_1_ - 1 int_cand_flow_1_1,4,2_ <= 0
c1333: 5 int_line_decision_var_1_2_ - 1 int_cand_flow_1_2,1,1_ + 5.671506352087114 node_voltage_phase_angle_1,4,1,1_ - 5.671506352087114 node_voltage_phase_angle_1,12,1,1_ <= 5
c1334: 5 int_line_decision_var_1_2_ + 1 int_cand_flow_1_2,1,1_ - 5.671506352087114 node_voltage_phase_angle_1,4,1,1_ + 5.671506352087114 node_voltage_phase_angle_1,12,1,1_ <= 5
c1335: -1 int_line_decision_var_1_2_ + 1 int_cand_flow_1_2,1,1_ <= 0
c1336: -1 int_line_decision_var_1_2_ - 1 int_cand_flow_1_2,1,1_ <= 0
c1337: 5 int_line_decision_var_1_2_ - 1 int_cand_flow_1_2,2,1_ + 5.671506352087114 node_voltage_phase_angle_1,4,2,1_ - 5.671506352087114 node_voltage_phase_angle_1,12,2,1_ <= 5
c1338: 5 int_line_decision_var_1_2_ + 1 int_cand_flow_1_2,2,1_ - 5.671506352087114 node_voltage_phase_angle_1,4,2,1_ + 5.671506352087114 node_voltage_phase_angle_1,12,2,1_ <= 5
c1339: -1 int_line_decision_var_1_2_ + 1 int_cand_flow_1_2,2,1_ <= 0
c1340: -1 int_line_decision_var_1_2_ - 1 int_cand_flow_1_2,2,1_ <= 0
c1341: 5 int_line_decision_var_1_2_ - 1 int_cand_flow_1_2,3,1_ + 5.671506352087114 node_voltage_phase_angle_1,4,3,1_ - 5.671506352087114 node_voltage_phase_angle_1,12,3,1_ <= 5
c1342: 5 int_line_decision_var_1_2_ + 1 int_cand_flow_1_2,3,1_ - 5.671506352087114 node_voltage_phase_angle_1,4,3,1_ + 5.671506352087114 node_voltage_phase_angle_1,12,3,1_ <= 5
c1343: -1 int_line_decision_var_1_2_ + 1 int_cand_flow_1_2,3,1_ <= 0
c1344: -1 int_line_decision_var_1_2_ - 1 int_cand_flow_1_2,3,1_ <= 0
c1345: 5 int_line_decision_var_1_2_ - 1 int_cand_flow_1_2,4,1_ + 5.671506352087114 node_voltage_phase_angle_1,4,4,1_ - 5.671506352087114 node_voltage_phase_angle_1,12,4,1_ <= 5
c1346: 5 int_line_decision_var_1_2_ + 1 int_cand_flow_1_2,4,1_ - 5.671506352087114 node_voltage_phase_angle_1,4,4,1_ + 5.671506352087114 node_voltage_phase_angle_1,12,4,1_ <= 5
c1347: -1 int_line_decision_var_1_2_ + 1 int_cand_flow_1_2,4,1_ <= 0
c1348: -1 int_line_decision_var_1_2_ - 1 int_cand_flow_1_2,4,1_ <= 0
c1349: 5 int_line_decision_var_1_2_ - 1 int_cand_flow_1_2,1,2_ + 5.671506352087114 node_voltage_phase_angle_1,4,1,2_ - 5.671506352087114 node_voltage_phase_angle_1,12,1,2_ <= 5
c1350: 5 int_line_decision_var_1_2_ + 1 int_cand_flow_1_2,1,2_ - 5.671506352087114 node_voltage_phase_angle_1,4,1,2_ + 5.671506352087114 node_voltage_phase_angle_1,12,1,2_ <= 5
c1351: -1 int_line_decision_var_1_2_ + 1 int_cand_flow_1_2,1,2_ <= 0
c1352: -1 int_line_decision_var_1_2_ - 1 int_cand_flow_1_2,1,2_ <= 0
c1353: 5 int_line_decision_var_1_2_ - 1 int_cand_flow_1_2,2,2_ + 5.671506352087114 node_voltage_phase_angle_1,4,2,2_ - 5.671506352087114 node_voltage_phase_angle_1,12,2,2_ <= 5
c1354: 5 int_line_decision_var_1_2_ + 1 int_cand_flow_1_2,2,2_ - 5.671506352087114 node_voltage_phase_angle_1,4,2,2_ + 5.671506352087114 node_voltage_phase_angle_1,12,2,2_ <= 5
c1355: -1 int_line_decision_var_1_2_ + 1 int_cand_flow_1_2,2,2_ <= 0
c1356: -1 int_line_decision_var_1_2_ - 1 int_cand_flow_1_2,2,2_ <= 0
c1357: 5 int_line_decision_var_1_2_ - 1 int_cand_flow_1_2,3,2_ + 5.671506352087114 node_voltage_phase_angle_1,4,3,2_ - 5.671506352087114 node_voltage_phase_angle_1,12,3,2_ <= 5
c1358: 5 int_line_decision_var_1_2_ + 1 int_cand_flow_1_2,3,2_ - 5.671506352087114 node_voltage_phase_angle_1,4,3,2_ + 5.671506352087114 node_voltage_phase_angle_1,12,3,2_ <= 5
c1359: -1 int_line_decision_var_1_2_ + 1 int_cand_flow_1_2,3,2_ <= 0
c1360: -1 int_line_decision_var_1_2_ - 1 int_cand_flow_1_2,3,2_ <= 0
c1361: 5 int_line_decision_var_1_2_ - 1 int_cand_flow_1_2,4,2_ + 5.671506352087114 node_voltage_phase_angle_1,4,4,2_ - 5.671506352087114 node_voltage_phase_angle_1,12,4,2_ <= 5
c1362: 5 int_line_decision_var_1_2_ + 1 int_cand_flow_1_2,4,2_ - 5.671506352087114 node_voltage_phase_angle_1,4,4,2_ + 5.671506352087114 node_voltage_phase_angle_1,12,4,2_ <= 5
c1363: -1 int_line_decision_var_1_2_ + 1 int_cand_flow_1_2,4,2_ <= 0
c1364: -1 int_line_decision_var_1_2_ - 1 int_cand_flow_1_2,4,2_ <= 0
c1365: 5 int_line_decision_var_1_3_ - 1 int_cand_flow_1_3,1,1_ - 5.751092707614447 node_voltage_phase_angle_1,2,1,1_ + 5.751092707614447 node_voltage_phase_angle_1,3,1,1_ <= 5
c1366: 5 int_line_decision_var_1_3_ + 1 int_cand_flow_1_3,1,1_ + 5.751092707614447 node_voltage_phase_angle_1,2,1,1_ - 5.751092707614447 node_voltage_phase_angle_1,3,1,1_ <= 5
c1367: -1 int_line_decision_var_1_3_ + 1 int_cand_flow_1_3,1,1_ <= 0
c1368: -1 int_line_decision_var_1_3_ - 1 int_cand_flow_1_3,1,1_ <= 0
c1369: 5 int_line_decision_var_1_3_ - 1 int_cand_flow_1_3,2,1_ - 5.751092707614447 node_voltage_phase_angle_1,2,2,1_ + 5.751092707614447 node_voltage_phase_angle_1,3,2,1_ <= 5
c1370: 5 int_line_decision_var_1_3_ + 1 int_cand_flow_1_3,2,1_ + 5.751092707614447 node_voltage_phase_angle_1,2,2,1_ - 5.751092707614447 node_voltage_phase_angle_1,3,2,1_ <= 5
c1371: -1 int_line_decision_var_1_3_ + 1 int_cand_flow_1_3,2,1_ <= 0
c1372: -1 int_line_decision_var_1_3_ - 1 int_cand_flow_1_3,2,1_ <= 0
c1373: 5 int_line_decision_var_1_3_ - 1 int_cand_flow_1_3,3,1_ - 5.751092707614447 node_voltage_phase_angle_1,2,3,1_ + 5.751092707614447 node_voltage_phase_angle_1,3,3,1_ <= 5
c1374: 5 int_line_decision_var_1_3_ + 1 int_cand_flow_1_3,3,1_ + 5.751092707614447 node_voltage_phase_angle_1,2,3,1_ - 5.751092707614447 node_voltage_phase_angle_1,3,3,1_ <= 5
c1375: -1 int_line_decision_var_1_3_ + 1 int_cand_flow_1_3,3,1_ <= 0
c1376: -1 int_line_decision_var_1_3_ - 1 int_cand_flow_1_3,3,1_ <= 0
c1377: 5 int_line_decision_var_1_3_ - 1 int_cand_flow_1_3,4,1_ - 5.751092707614447 node_voltage_phase_angle_1,2,4,1_ + 5.751092707614447 node_voltage_phase_angle_1,3,4,1_ <= 5
c1378: 5 int_line_decision_var_1_3_ + 1 int_cand_flow_1_3,4,1_ + 5.751092707614447 node_voltage_phase_angle_1,2,4,1_ - 5.751092707614447 node_voltage_phase_angle_1,3,4,1_ <= 5
c1379: -1 int_line_decision_var_1_3_ + 1 int_cand_flow_1_3,4,1_ <= 0
c1380: -1 int_line_decision_var_1_3_ - 1 int_cand_flow_1_3,4,1_ <= 0
c1381: 5 int_line_decision_var_1_3_ - 1 int_cand_flow_1_3,1,2_ - 5.751092707614447 node_voltage_phase_angle_1,2,1,2_ + 5.751092707614447 node_voltage_phase_angle_1,3,1,2_ <= 5
c1382: 5 int_line_decision_var_1_3_ + 1 int_cand_flow_1_3,1,2_ + 5.751092707614447 node_voltage_phase_angle_1,2,1,2_ - 5.751092707614447 node_voltage_phase_angle_1,3,1,2_ <= 5
c1383: -1 int_line_decision_var_1_3_ + 1 int_cand_flow_1_3,1,2_ <= 0
c1384: -1 int_line_decision_var_1_3_ - 1 int_cand_flow_1_3,1,2_ <= 0
c1385: 5 int_line_decision_var_1_3_ - 1 int_cand_flow_1_3,2,2_ - 5.751092707614447 node_voltage_phase_angle_1,2,2,2_ + 5.751092707614447 node_voltage_phase_angle_1,3,2,2_ <= 5
c1386: 5 int_line_decision_var_1_3_ + 1 int_cand_flow_1_3,2,2_ + 5.751092707614447 node_voltage_phase_angle_1,2,2,2_ - 5.751092707614447 node_voltage_phase_angle_1,3,2,2_ <= 5
c1387: -1 int_line_decision_var_1_3_ + 1 int_cand_flow_1_3,2,2_ <= 0
c1388: -1 int_line_decision_var_1_3_ - 1 int_cand_flow_1_3,2,2_ <= 0
c1389: 5 int_line_decision_var_1_3_ - 1 int_cand_flow_1_3,3,2_ - 5.751092707614447 node_voltage_phase_angle_1,2,3,2_ + 5.751092707614447 node_voltage_phase_angle_1,3,3,2_ <= 5
c1390: 5 int_line_decision_var_1_3_ + 1 int_cand_flow_1_3,3,2_ + 5.751092707614447 node_voltage_phase_angle_1,2,3,2_ - 5.751092707614447 node_voltage_phase_angle_1,3,3,2_ <= 5
c1391: -1 int_line_decision_var_1_3_ + 1 int_cand_flow_1_3,3,2_ <= 0
c1392: -1 int_line_decision_var_1_3_ - 1 int_cand_flow_1_3,3,2_ <= 0
c1393: 5 int_line_decision_var_1_3_ - 1 int_cand_flow_1_3,4,2_ - 5.751092707614447 node_voltage_phase_angle_1,2,4,2_ + 5.751092707614447 node_voltage_phase_angle_1,3,4,2_ <= 5
c1394: 5 int_line_decision_var_1_3_ + 1 int_cand_flow_1_3,4,2_ + 5.751092707614447 node_voltage_phase_angle_1,2,4,2_ - 5.751092707614447 node_voltage_phase_angle_1,3,4,2_ <= 5
c1395: -1 int_line_decision_var_1_3_ + 1 int_cand_flow_1_3,4,2_ <= 0
c1396: -1 int_line_decision_var_1_3_ - 1 int_cand_flow_1_3,4,2_ <= 0
c1397: 5 int_line_decision_var_1_4_ - 1 int_cand_flow_1_4,1,1_ - 5.846927439630474 node_voltage_phase_angle_1,1,1,1_ + 5.846927439630474 node_voltage_phase_angle_1,2,1,1_ <= 5
c1398: 5 int_line_decision_var_1_4_ + 1 int_cand_flow_1_4,1,1_ + 5.846927439630474 node_voltage_phase_angle_1,1,1,1_ - 5.846927439630474 node_voltage_phase_angle_1,2,1,1_ <= 5
c1399: -1 int_line_decision_var_1_4_ + 1 int_cand_flow_1_4,1,1_ <= 0
c1400: -1 int_line_decision_var_1_4_ - 1 int_cand_flow_1_4,1,1_ <= 0
c1401: 5 int_line_decision_var_1_4_ - 1 int_cand_flow_1_4,2,1_ - 5.846927439630474 node_voltage_phase_angle_1,1,2,1_ + 5.846927439630474 node_voltage_phase_angle_1,2,2,1_ <= 5
c1402: 5 int_line_decision_var_1_4_ + 1 int_cand_flow_1_4,2,1_ + 5.846927439630474 node_voltage_phase_angle_1,1,2,1_ - 5.846927439630474 node_voltage_phase_angle_1,2,2,1_ <= 5
c1403: -1 int_line_decision_var_1_4_ + 1 int_cand_flow_1_4,2,1_ <= 0
c1404: -1 int_line_decision_var_1_4_ - 1 int_cand_flow_1_4,2,1_ <= 0
c1405: 5 int_line_decision_var_1_4_ - 1 int_cand_flow_1_4,3,1_ - 5.846927439630474 node_voltage_phase_angle_1,1,3,1_ + 5.846927439630474 node_voltage_phase_angle_1,2,3,1_ <= 5
c1406: 5 int_line_decision_var_1_4_ + 1 int_cand_flow_1_4,3,1_ + 5.846927439630474 node_voltage_phase_angle_1,1,3,1_ - 5.846927439630474 node_voltage_phase_angle_1,2,3,1_ <= 5
c1407: -1 int_line_decision_var_1_4_ + 1 int_cand_flow_1_4,3,1_ <= 0
c1408: -1 int_line_decision_var_1_4_ - 1 int_cand_flow_1_4,3,1_ <= 0
c1409: 5 int_line_decision_var_1_4_ - 1 int_cand_flow_1_4,4,1_ - 5.846927439630474 node_voltage_phase_angle_1,1,4,1_ + 5.846927439630474 node_voltage_phase_angle_1,2,4,1_ <= 5
c1410: 5 int_line_decision_var_1_4_ + 1 int_cand_flow_1_4,4,1_ + 5.846927439630474 node_voltage_phase_angle_1,1,4,1_ - 5.846927439630474 node_voltage_phase_angle_1,2,4,1_ <= 5
c1411: -1 int_line_decision_var_1_4_ + 1 int_cand_flow_1_4,4,1_ <= 0
c1412: -1 int_line_decision_var_1_4_ - 1 int_cand_flow_1_4,4,1_ <= 0
c1413: 5 int_line_decision_var_1_4_ - 1 int_cand_flow_1_4,1,2_ - 5.846927439630474 node_voltage_phase_angle_1,1,1,2_ + 5.846927439630474 node_voltage_phase_angle_1,2,1,2_ <= 5
c1414: 5 int_line_decision_var_1_4_ + 1 int_cand_flow_1_4,1,2_ + 5.846927439630474 node_voltage_phase_angle_1,1,1,2_ - 5.846927439630474 node_voltage_phase_angle_1,2,1,2_ <= 5
c1415: -1 int_line_decision_var_1_4_ + 1 int_cand_flow_1_4,1,2_ <= 0
c1416: -1 int_line_decision_var_1_4_ - 1 int_cand_flow_1_4,1,2_ <= 0
c1417: 5 int_line_decision_var_1_4_ - 1 int_cand_flow_1_4,2,2_ - 5.846927439630474 node_voltage_phase_angle_1,1,2,2_ + 5.846927439630474 node_voltage_phase_angle_1,2,2,2_ <= 5
c1418: 5 int_line_decision_var_1_4_ + 1 int_cand_flow_1_4,2,2_ + 5.846927439630474 node_voltage_phase_angle_1,1,2,2_ - 5.846927439630474 node_voltage_phase_angle_1,2,2,2_ <= 5
c1419: -1 int_line_decision_var_1_4_ + 1 int_cand_flow_1_4,2,2_ <= 0
c1420: -1 int_line_decision_var_1_4_ - 1 int_cand_flow_1_4,2,2_ <= 0
c1421: 5 int_line_decision_var_1_4_ - 1 int_cand_flow_1_4,3,2_ - 5.846927439630474 node_voltage_phase_angle_1,1,3,2_ + 5.846927439630474 node_voltage_phase_angle_1,2,3,2_ <= 5
c1422: 5 int_line_decision_var_1_4_ + 1 int_cand_flow_1_4,3,2_ + 5.846927439630474 node_voltage_phase_angle_1,1,3,2_ - 5.846927439630474 node_voltage_phase_angle_1,2,3,2_ <= 5
c1423: -1 int_line_decision_var_1_4_ + 1 int_cand_flow_1_4,3,2_ <= 0
c1424: -1 int_line_decision_var_1_4_ - 1 int_cand_flow_1_4,3,2_ <= 0
c1425: 5 int_line_decision_var_1_4_ - 1 int_cand_flow_1_4,4,2_ - 5.846927439630474 node_voltage_phase_angle_1,1,4,2_ + 5.846927439630474 node_voltage_phase_angle_1,2,4,2_ <= 5
c1426: 5 int_line_decision_var_1_4_ + 1 int_cand_flow_1_4,4,2_ + 5.846927439630474 node_voltage_phase_angle_1,1,4,2_ - 5.846927439630474 node_voltage_phase_angle_1,2,4,2_ <= 5
c1427: -1 int_line_decision_var_1_4_ + 1 int_cand_flow_1_4,4,2_ <= 0
c1428: -1 int_line_decision_var_1_4_ - 1 int_cand_flow_1_4,4,2_ <= 0
c1429: 5 int_line_decision_var_1_5_ - 1 int_cand_flow_1_5,1,1_ + 23.747328425552123 node_voltage_phase_angle_1,1,1,1_ - 23.747328425552123 node_voltage_phase_angle_1,4,1,1_ <= 5
c1430: 5 int_line_decision_var_1_5_ + 1 int_cand_flow_1_5,1,1_ - 23.747328425552123 node_voltage_phase_angle_1,1,1,1_ + 23.747328425552123 node_voltage_phase_angle_1,4,1,1_ <= 5
c1431: -1 int_line_decision_var_1_5_ + 1 int_cand_flow_1_5,1,1_ <= 0
c1432: -1 int_line_decision_var_1_5_ - 1 int_cand_flow_1_5,1,1_ <= 0
c1433: 5 int_line_decision_var_1_5_ - 1 int_cand_flow_1_5,2,1_ + 23.747328425552123 node_voltage_phase_angle_1,1,2,1_ - 23.747328425552123 node_voltage_phase_angle_1,4,2,1_ <= 5
c1434: 5 int_line_decision_var_1_5_ + 1 int_cand_flow_1_5,2,1_ - 23.747328425552123 node_voltage_phase_angle_1,1,2,1_ + 23.747328425552123 node_voltage_phase_angle_1,4,2,1_ <= 5
c1435: -1 int_line_decision_var_1_5_ + 1 int_cand_flow_1_5,2,1_ <= 0
c1436: -1 int_line_decision_var_1_5_ - 1 int_cand_flow_1_5,2,1_ <= 0
c1437: 5 int_line_decision_var_1_5_ - 1 int_cand_flow_1_5,3,1_ + 23.747328425552123 node_voltage_phase_angle_1,1,3,1_ - 23.747328425552123 node_voltage_phase_angle_1,4,3,1_ <= 5
c1438: 5 int_line_decision_var_1_5_ + 1 int_cand_flow_1_5,3,1_ - 23.747328425552123 node_voltage_phase_angle_1,1,3,1_ + 23.747328425552123 node_voltage_phase_angle_1,4,3,1_ <= 5
c1439: -1 int_line_decision_var_1_5_ + 1 int_cand_flow_1_5,3,1_ <= 0
c1440: -1 int_line_decision_var_1_5_ - 1 int_cand_flow_1_5,3,1_ <= 0
c1441: 5 int_line_decision_var_1_5_ - 1 int_cand_flow_1_5,4,1_ + 23.747328425552123 node_voltage_phase_angle_1,1,4,1_ - 23.747328425552123 node_voltage_phase_angle_1,4,4,1_ <= 5
c1442: 5 int_line_decision_var_1_5_ + 1 int_cand_flow_1_5,4,1_ - 23.747328425552123 node_voltage_phase_angle_1,1,4,1_ + 23.747328425552123 node_voltage_phase_angle_1,4,4,1_ <= 5
c1443: -1 int_line_decision_var_1_5_ + 1 int_cand_flow_1_5,4,1_ <= 0
c1444: -1 int_line_decision_var_1_5_ - 1 int_cand_flow_1_5,4,1_ <= 0
c1445: 5 int_line_decision_var_1_5_ - 1 int_cand_flow_1_5,1,2_ + 23.747328425552123 node_voltage_phase_angle_1,1,1,2_ - 23.747328425552123 node_voltage_phase_angle_1,4,1,2_ <= 5
c1446: 5 int_line_decision_var_1_5_ + 1 int_cand_flow_1_5,1,2_ - 23.747328425552123 node_voltage_phase_angle_1,1,1,2_ + 23.747328425552123 node_voltage_phase_angle_1,4,1,2_ <= 5
c1447: -1 int_line_decision_var_1_5_ + 1 int_cand_flow_1_5,1,2_ <= 0
c1448: -1 int_line_decision_var_1_5_ - 1 int_cand_flow_1_5,1,2_ <= 0
c1449: 5 int_line_decision_var_1_5_ - 1 int_cand_flow_1_5,2,2_ + 23.747328425552123 node_voltage_phase_angle_1,1,2,2_ - 23.747328425552123 node_voltage_phase_angle_1,4,2,2_ <= 5
c1450: 5 int_line_decision_var_1_5_ + 1 int_cand_flow_1_5,2,2_ - 23.747328425552123 node_voltage_phase_angle_1,1,2,2_ + 23.747328425552123 node_voltage_phase_angle_1,4,2,2_ <= 5
c1451: -1 int_line_decision_var_1_5_ + 1 int_cand_flow_1_5,2,2_ <= 0
c1452: -1 int_line_decision_var_1_5_ - 1 int_cand_flow_1_5,2,2_ <= 0
c1453: 5 int_line_decision_var_1_5_ - 1 int_cand_flow_1_5,3,2_ + 23.747328425552123 node_voltage_phase_angle_1,1,3,2_ - 23.747328425552123 node_voltage_phase_angle_1,4,3,2_ <= 5
c1454: 5 int_line_decision_var_1_5_ + 1 int_cand_flow_1_5,3,2_ - 23.747328425552123 node_voltage_phase_angle_1,1,3,2_ + 23.747328425552123 node_voltage_phase_angle_1,4,3,2_ <= 5
c1455: -1 int_line_decision_var_1_5_ + 1 int_cand_flow_1_5,3,2_ <= 0
c1456: -1 int_line_decision_var_1_5_ - 1 int_cand_flow_1_5,3,2_ <= 0
c1457: 5 int_line_decision_var_1_5_ - 1 int_cand_flow_1_5,4,2_ + 23.747328425552123 node_voltage_phase_angle_1,1,4,2_ - 23.747328425552123 node_voltage_phase_angle_1,4,4,2_ <= 5
c1458: 5 int_line_decision_var_1_5_ + 1 int_cand_flow_1_5,4,2_ - 23.747328425552123 node_voltage_phase_angle_1,1,4,2_ + 23.747328425552123 node_voltage_phase_angle_1,4,4,2_ <= 5
c1459: -1 int_line_decision_var_1_5_ + 1 int_cand_flow_1_5,4,2_ <= 0
c1460: -1 int_line_decision_var_1_5_ - 1 int_cand_flow_1_5,4,2_ <= 0
c1461: 5 int_line_decision_var_1_6_ - 1 int_cand_flow_1_6,1,1_ + 4.781943381790359 node_voltage_phase_angle_1,7,1,1_ - 4.781943381790359 node_voltage_phase_angle_1,14,1,1_ <= 5
c1462: 5 int_line_decision_var_1_6_ + 1 int_cand_flow_1_6,1,1_ - 4.781943381790359 node_voltage_phase_angle_1,7,1,1_ + 4.781943381790359 node_voltage_phase_angle_1,14,1,1_ <= 5
c1463: -1 int_line_decision_var_1_6_ + 1 int_cand_flow_1_6,1,1_ <= 0
c1464: -1 int_line_decision_var_1_6_ - 1 int_cand_flow_1_6,1,1_ <= 0
c1465: 5 int_line_decision_var_1_6_ - 1 int_cand_flow_1_6,2,1_ + 4.781943381790359 node_voltage_phase_angle_1,7,2,1_ - 4.781943381790359 node_voltage_phase_angle_1,14,2,1_ <= 5
c1466: 5 int_line_decision_var_1_6_ + 1 int_cand_flow_1_6,2,1_ - 4.781943381790359 node_voltage_phase_angle_1,7,2,1_ + 4.781943381790359 node_voltage_phase_angle_1,14,2,1_ <= 5
c1467: -1 int_line_decision_var_1_6_ + 1 int_cand_flow_1_6,2,1_ <= 0
c1468: -1 int_line_decision_var_1_6_ - 1 int_cand_flow_1_6,2,1_ <= 0
c1469: 5 int_line_decision_var_1_6_ - 1 int_cand_flow_1_6,3,1_ + 4.781943381790359 node_voltage_phase_angle_1,7,3,1_ - 4.781943381790359 node_voltage_phase_angle_1,14,3,1_ <= 5
c1470: 5 int_line_decision_var_1_6_ + 1 int_cand_flow_1_6,3,1_ - 4.781943381790359 node_voltage_phase_angle_1,7,3,1_ + 4.781943381790359 node_voltage_phase_angle_1,14,3,1_ <= 5
c1471: -1 int_line_decision_var_1_6_ + 1 int_cand_flow_1_6,3,1_ <= 0
c1472: -1 int_line_decision_var_1_6_ - 1 int_cand_flow_1_6,3,1_ <= 0
c1473: 5 int_line_decision_var_1_6_ - 1 int_cand_flow_1_6,4,1_ + 4.781943381790359 node_voltage_phase_angle_1,7,4,1_ - 4.781943381790359 node_voltage_phase_angle_1,14,4,1_ <= 5
c1474: 5 int_line_decision_var_1_6_ + 1 int_cand_flow_1_6,4,1_ - 4.781943381790359 node_voltage_phase_angle_1,7,4,1_ + 4.781943381790359 node_voltage_phase_angle_1,14,4,1_ <= 5
c1475: -1 int_line_decision_var_1_6_ + 1 int_cand_flow_1_6,4,1_ <= 0
c1476: -1 int_line_decision_var_1_6_ - 1 int_cand_flow_1_6,4,1_ <= 0
c1477: 5 int_line_decision_var_1_6_ - 1 int_cand_flow_1_6,1,2_ + 4.781943381790359 node_voltage_phase_angle_1,7,1,2_ - 4.781943381790359 node_voltage_phase_angle_1,14,1,2_ <= 5
c1478: 5 int_line_decision_var_1_6_ + 1 int_cand_flow_1_6,1,2_ - 4.781943381790359 node_voltage_phase_angle_1,7,1,2_ + 4.781943381790359 node_voltage_phase_angle_1,14,1,2_ <= 5
c1479: -1 int_line_decision_var_1_6_ + 1 int_cand_flow_1_6,1,2_ <= 0
c1480: -1 int_line_decision_var_1_6_ - 1 int_cand_flow_1_6,1,2_ <= 0
c1481: 5 int_line_decision_var_1_6_ - 1 int_cand_flow_1_6,2,2_ + 4.781943381790359 node_voltage_phase_angle_1,7,2,2_ - 4.781943381790359 node_voltage_phase_angle_1,14,2,2_ <= 5
c1482: 5 int_line_decision_var_1_6_ + 1 int_cand_flow_1_6,2,2_ - 4.781943381790359 node_voltage_phase_angle_1,7,2,2_ + 4.781943381790359 node_voltage_phase_angle_1,14,2,2_ <= 5
c1483: -1 int_line_decision_var_1_6_ + 1 int_cand_flow_1_6,2,2_ <= 0
c1484: -1 int_line_decision_var_1_6_ - 1 int_cand_flow_1_6,2,2_ <= 0
c1485: 5 int_line_decision_var_1_6_ - 1 int_cand_flow_1_6,3,2_ + 4.781943381790359 node_voltage_phase_angle_1,7,3,2_ - 4.781943381790359 node_voltage_phase_angle_1,14,3,2_ <= 5
c1486: 5 int_line_decision_var_1_6_ + 1 int_cand_flow_1_6,3,2_ - 4.781943381790359 node_voltage_phase_angle_1,7,3,2_ + 4.781943381790359 node_voltage_phase_angle_1,14,3,2_ <= 5
c1487: -1 int_line_decision_var_1_6_ + 1 int_cand_flow_1_6,3,2_ <= 0
c1488: -1 int_line_decision_var_1_6_ - 1 int_cand_flow_1_6,3,2_ <= 0
c1489: 5 int_line_decision_var_1_6_ - 1 int_cand_flow_1_6,4,2_ + 4.781943381790359 node_voltage_phase_angle_1,7,4,2_ - 4.781943381790359 node_voltage_phase_angle_1,14,4,2_ <= 5
c1490: 5 int_line_decision_var_1_6_ + 1 int_cand_flow_1_6,4,2_ - 4.781943381790359 node_voltage_phase_angle_1,7,4,2_ + 4.781943381790359 node_voltage_phase_angle_1,14,4,2_ <= 5
c1491: -1 int_line_decision_var_1_6_ + 1 int_cand_flow_1_6,4,2_ <= 0
c1492: -1 int_line_decision_var_1_6_ - 1 int_cand_flow_1_6,4,2_ <= 0
c1493: 5 int_line_decision_var_1_7_ - 1 int_cand_flow_1_7,1,1_ + 1.7979790715236075 node_voltage_phase_angle_1,1,1,1_ - 1.7979790715236075 node_voltage_phase_angle_1,6,1,1_ <= 5
c1494: 5 int_line_decision_var_1_7_ + 1 int_cand_flow_1_7,1,1_ - 1.7979790715236075 node_voltage_phase_angle_1,1,1,1_ + 1.7979790715236075 node_voltage_phase_angle_1,6,1,1_ <= 5
c1495: -1 int_line_decision_var_1_7_ + 1 int_cand_flow_1_7,1,1_ <= 0
c1496: -1 int_line_decision_var_1_7_ - 1 int_cand_flow_1_7,1,1_ <= 0
c1497: 5 int_line_decision_var_1_7_ - 1 int_cand_flow_1_7,2,1_ + 1.7979790715236075 node_voltage_phase_angle_1,1,2,1_ - 1.7979790715236075 node_voltage_phase_angle_1,6,2,1_ <= 5
c1498: 5 int_line_decision_var_1_7_ + 1 int_cand_flow_1_7,2,1_ - 1.7979790715236075 node_voltage_phase_angle_1,1,2,1_ + 1.7979790715236075 node_voltage_phase_angle_1,6,2,1_ <= 5
c1499: -1 int_line_decision_var_1_7_ + 1 int_cand_flow_1_7,2,1_ <= 0
c1500: -1 int_line_decision_var_1_7_ - 1 int_cand_flow_1_7,2,1_ <= 0
c1501: 5 int_line_decision_var_1_7_ - 1 int_cand_flow_1_7,3,1_ + 1.7979790715236075 node_voltage_phase_angle_1,1,3,1_ - 1.7979790715236075 node_voltage_phase_angle_1,6,3,1_ <= 5
c1502: 5 int_line_decision_var_1_7_ + 1 int_cand_flow_1_7,3,1_ - 1.7979790715236075 node_voltage_phase_angle_1,1,3,1_ + 1.7979790715236075 node_voltage_phase_angle_1,6,3,1_ <= 5
c1503: -1 int_line_decision_var_1_7_ + 1 int_cand_flow_1_7,3,1_ <= 0
c1504: -1 int_line_decision_var_1_7_ - 1 int_cand_flow_1_7,3,1_ <= 0
c1505: 5 int_line_decision_var_1_7_ - 1 int_cand_flow_1_7,4,1_ + 1.7979790715236075 node_voltage_phase_angle_1,1,4,1_ - 1.7979790715236075 node_voltage_phase_angle_1,6,4,1_ <= 5
c1506: 5 int_line_decision_var_1_7_ + 1 int_cand_flow_1_7,4,1_ - 1.7979790715236075 node_voltage_phase_angle_1,1,4,1_ + 1.7979790715236075 node_voltage_phase_angle_1,6,4,1_ <= 5
c1507: -1 int_line_decision_var_1_7_ + 1 int_cand_flow_1_7,4,1_ <= 0
c1508: -1 int_line_decision_var_1_7_ - 1 int_cand_flow_1_7,4,1_ <= 0
c1509: 5 int_line_decision_var_1_7_ - 1 int_cand_flow_1_7,1,2_ + 1.7979790715236075 node_voltage_phase_angle_1,1,1,2_ - 1.7979790715236075 node_voltage_phase_angle_1,6,1,2_ <= 5
c1510: 5 int_line_decision_var_1_7_ + 1 int_cand_flow_1_7,1,2_ - 1.7979790715236075 node_voltage_phase_angle_1,1,1,2_ + 1.7979790715236075 node_voltage_phase_angle_1,6,1,2_ <= 5
c1511: -1 int_line_decision_var_1_7_ + 1 int_cand_flow_1_7,1,2_ <= 0
c1512: -1 int_line_decision_var_1_7_ - 1 int_cand_flow_1_7,1,2_ <= 0
c1513: 5 int_line_decision_var_1_7_ - 1 int_cand_flow_1_7,2,2_ + 1.7979790715236075 node_voltage_phase_angle_1,1,2,2_ - 1.7979790715236075 node_voltage_phase_angle_1,6,2,2_ <= 5
c1514: 5 int_line_decision_var_1_7_ + 1 int_cand_flow_1_7,2,2_ - 1.7979790715236075 node_voltage_phase_angle_1,1,2,2_ + 1.7979790715236075 node_voltage_phase_angle_1,6,2,2_ <= 5
c1515: -1 int_line_decision_var_1_7_ + 1 int_cand_flow_1_7,2,2_ <= 0
c1516: -1 int_line_decision_var_1_7_ - 1 int_cand_flow_1_7,2,2_ <= 0
c1517: 5 int_line_decision_var_1_7_ - 1 int_cand_flow_1_7,3,2_ + 1.7979790715236075 node_voltage_phase_angle_1,1,3,2_ - 1.7979790715236075 node_voltage_phase_angle_1,6,3,2_ <= 5
c1518: 5 int_line_decision_var_1_7_ + 1 int_cand_flow_1_7,3,2_ - 1.7979790715236075 node_voltage_phase_angle_1,1,3,2_ + 1.7979790715236075 node_voltage_phase_angle_1,6,3,2_ <= 5
c1519: -1 int_line_decision_var_1_7_ + 1 int_cand_flow_1_7,3,2_ <= 0
c1520: -1 int_line_decision_var_1_7_ - 1 int_cand_flow_1_7,3,2_ <= 0
c1521: 5 int_line_decision_var_1_7_ - 1 int_cand_flow_1_7,4,2_ + 1.7979790715236075 node_voltage_phase_angle_1,1,4,2_ - 1.7979790715236075 node_voltage_phase_angle_1,6,4,2_ <= 5
c1522: 5 int_line_decision_var_1_7_ + 1 int_cand_flow_1_7,4,2_ - 1.7979790715236075 node_voltage_phase_angle_1,1,4,2_ + 1.7979790715236075 node_voltage_phase_angle_1,6,4,2_ <= 5
c1523: -1 int_line_decision_var_1_7_ + 1 int_cand_flow_1_7,4,2_ <= 0
c1524: -1 int_line_decision_var_1_7_ - 1 int_cand_flow_1_7,4,2_ <= 0
c1525: 5 int_line_decision_var_1_8_ - 1 int_cand_flow_1_8,1,1_ + 3.967939052456154 node_voltage_phase_angle_1,2,1,1_ - 3.967939052456154 node_voltage_phase_angle_1,12,1,1_ <= 5
c1526: 5 int_line_decision_var_1_8_ + 1 int_cand_flow_1_8,1,1_ - 3.967939052456154 node_voltage_phase_angle_1,2,1,1_ + 3.967939052456154 node_voltage_phase_angle_1,12,1,1_ <= 5
c1527: -1 int_line_decision_var_1_8_ + 1 int_cand_flow_1_8,1,1_ <= 0
c1528: -1 int_line_decision_var_1_8_ - 1 int_cand_flow_1_8,1,1_ <= 0
c1529: 5 int_line_decision_var_1_8_ - 1 int_cand_flow_1_8,2,1_ + 3.967939052456154 node_voltage_phase_angle_1,2,2,1_ - 3.967939052456154 node_voltage_phase_angle_1,12,2,1_ <= 5
c1530: 5 int_line_decision_var_1_8_ + 1 int_cand_flow_1_8,2,1_ - 3.967939052456154 node_voltage_phase_angle_1,2,2,1_ + 3.967939052456154 node_voltage_phase_angle_1,12,2,1_ <= 5
c1531: -1 int_line_decision_var_1_8_ + 1 int_cand_flow_1_8,2,1_ <= 0
c1532: -1 int_line_decision_var_1_8_ - 1 int_cand_flow_1_8,2,1_ <= 0
c1533: 5 int_line_decision_var_1_8_ - 1 int_cand_flow_1_8,3,1_ + 3.967939052456154 node_voltage_phase_angle_1,2,3,1_ - 3.967939052456154 node_voltage_phase_angle_1,12,3,1_ <= 5
c1534: 5 int_line_decision_var_1_8_ + 1 int_cand_flow_1_8,3,1_ - 3.967939052456154 node_voltage_phase_angle_1,2,3,1_ + 3.967939052456154 node_voltage_phase_angle_1,12,3,1_ <= 5
c1535: -1 int_line_decision_var_1_8_ + 1 int_cand_flow_1_8,3,1_ <= 0
c1536: -1 int_line_decision_var_1_8_ - 1 int_cand_flow_1_8,3,1_ <= 0
c1537: 5 int_line_decision_var_1_8_ - 1 int_cand_flow_1_8,4,1_ + 3.967939052456154 node_voltage_phase_angle_1,2,4,1_ - 3.967939052456154 node_voltage_phase_angle_1,12,4,1_ <= 5
c1538: 5 int_line_decision_var_1_8_ + 1 int_cand_flow_1_8,4,1_ - 3.967939052456154 node_voltage_phase_angle_1,2,4,1_ + 3.967939052456154 node_voltage_phase_angle_1,12,4,1_ <= 5
c1539: -1 int_line_decision_var_1_8_ + 1 int_cand_flow_1_8,4,1_ <= 0
c1540: -1 int_line_decision_var_1_8_ - 1 int_cand_flow_1_8,4,1_ <= 0
c1541: 5 int_line_decision_var_1_8_ - 1 int_cand_flow_1_8,1,2_ + 3.967939052456154 node_voltage_phase_angle_1,2,1,2_ - 3.967939052456154 node_voltage_phase_angle_1,12,1,2_ <= 5
c1542: 5 int_line_decision_var_1_8_ + 1 int_cand_flow_1_8,1,2_ - 3.967939052456154 node_voltage_phase_angle_1,2,1,2_ + 3.967939052456154 node_voltage_phase_angle_1,12,1,2_ <= 5
c1543: -1 int_line_decision_var_1_8_ + 1 int_cand_flow_1_8,1,2_ <= 0
c1544: -1 int_line_decision_var_1_8_ - 1 int_cand_flow_1_8,1,2_ <= 0
c1545: 5 int_line_decision_var_1_8_ - 1 int_cand_flow_1_8,2,2_ + 3.967939052456154 node_voltage_phase_angle_1,2,2,2_ - 3.967939052456154 node_voltage_phase_angle_1,12,2,2_ <= 5
c1546: 5 int_line_decision_var_1_8_ + 1 int_cand_flow_1_8,2,2_ - 3.967939052456154 node_voltage_phase_angle_1,2,2,2_ + 3.967939052456154 node_voltage_phase_angle_1,12,2,2_ <= 5
c1547: -1 int_line_decision_var_1_8_ + 1 int_cand_flow_1_8,2,2_ <= 0
c1548: -1 int_line_decision_var_1_8_ - 1 int_cand_flow_1_8,2,2_ <= 0
c1549: 5 int_line_decision_var_1_8_ - 1 int_cand_flow_1_8,3,2_ + 3.967939052456154 node_voltage_phase_angle_1,2,3,2_ - 3.967939052456154 node_voltage_phase_angle_1,12,3,2_ <= 5
c1550: 5 int_line_decision_var_1_8_ + 1 int_cand_flow_1_8,3,2_ - 3.967939052456154 node_voltage_phase_angle_1,2,3,2_ + 3.967939052456154 node_voltage_phase_angle_1,12,3,2_ <= 5
c1551: -1 int_line_decision_var_1_8_ + 1 int_cand_flow_1_8,3,2_ <= 0
c1552: -1 int_line_decision_var_1_8_ - 1 int_cand_flow_1_8,3,2_ <= 0
c1553: 5 int_line_decision_var_1_8_ - 1 int_cand_flow_1_8,4,2_ + 3.967939052456154 node_voltage_phase_angle_1,2,4,2_ - 3.967939052456154 node_voltage_phase_angle_1,12,4,2_ <= 5
c1554: 5 int_line_decision_var_1_8_ + 1 int_cand_flow_1_8,4,2_ - 3.967939052456154 node_voltage_phase_angle_1,2,4,2_ + 3.967939052456154 node_voltage_phase_angle_1,12,4,2_ <= 5
c1555: -1 int_line_decision_var_1_8_ + 1 int_cand_flow_1_8,4,2_ <= 0
c1556: -1 int_line_decision_var_1_8_ - 1 int_cand_flow_1_8,4,2_ <= 0
c1557: 5 int_line_decision_var_1_9_ - 1 int_cand_flow_1_9,1,1_ - 5.027652086475616 node_voltage_phase_angle_1,8,1,1_ + 5.027652086475616 node_voltage_phase_angle_1,13,1,1_ <= 5
c1558: 5 int_line_decision_var_1_9_ + 1 int_cand_flow_1_9,1,1_ + 5.027652086475616 node_voltage_phase_angle_1,8,1,1_ - 5.027652086475616 node_voltage_phase_angle_1,13,1,1_ <= 5
c1559: -1 int_line_decision_var_1_9_ + 1 int_cand_flow_1_9,1,1_ <= 0
c1560: -1 int_line_decision_var_1_9_ - 1 int_cand_flow_1_9,1,1_ <= 0
c1561: 5 int_line_decision_var_1_9_ - 1 int_cand_flow_1_9,2,1_ - 5.027652086475616 node_voltage_phase_angle_1,8,2,1_ + 5.027652086475616 node_voltage_phase_angle_1,13,2,1_ <= 5
c1562: 5 int_line_decision_var_1_9_ + 1 int_cand_flow_1_9,2,1_ + 5.027652086475616 node_voltage_phase_angle_1,8,2,1_ - 5.027652086475616 node_voltage_phase_angle_1,13,2,1_ <= 5
c1563: -1 int_line_decision_var_1_9_ + 1 int_cand_flow_1_9,2,1_ <= 0
c1564: -1 int_line_decision_var_1_9_ - 1 int_cand_flow_1_9,2,1_ <= 0
c1565: 5 int_line_decision_var_1_9_ - 1 int_cand_flow_1_9,3,1_ - 5.027652086475616 node_voltage_phase_angle_1,8,3,1_ + 5.027652086475616 node_voltage_phase_angle_1,13,3,1_ <= 5
c1566: 5 int_line_decision_var_1_9_ + 1 int_cand_flow_1_9,3,1_ + 5.027652086475616 node_voltage_phase_angle_1,8,3,1_ - 5.027652086475616 node_voltage_phase_angle_1,13,3,1_ <= 5
c1567: -1 int_line_decision_var_1_9_ + 1 int_cand_flow_1_9,3,1_ <= 0
c1568: -1 int_line_decision_var_1_9_ - 1 int_cand_flow_1_9,3,1_ <= 0
c1569: 5 int_line_decision_var_1_9_ - 1 int_cand_flow_1_9,4,1_ - 5.027652086475616 node_voltage_phase_angle_1,8,4,1_ + 5.027652086475616 node_voltage_phase_angle_1,13,4,1_ <= 5
c1570: 5 int_line_decision_var_1_9_ + 1 int_cand_flow_1_9,4,1_ + 5.027652086475616 node_voltage_phase_angle_1,8,4,1_ - 5.027652086475616 node_voltage_phase_angle_1,13,4,1_ <= 5
c1571: -1 int_line_decision_var_1_9_ + 1 int_cand_flow_1_9,4,1_ <= 0
c1572: -1 int_line_decision_var_1_9_ - 1 int_cand_flow_1_9,4,1_ <= 0
c1573: 5 int_line_decision_var_1_9_ - 1 int_cand_flow_1_9,1,2_ - 5.027652086475616 node_voltage_phase_angle_1,8,1,2_ + 5.027652086475616 node_voltage_phase_angle_1,13,1,2_ <= 5
c1574: 5 int_line_decision_var_1_9_ + 1 int_cand_flow_1_9,1,2_ + 5.027652086475616 node_voltage_phase_angle_1,8,1,2_ - 5.027652086475616 node_voltage_phase_angle_1,13,1,2_ <= 5
c1575: -1 int_line_decision_var_1_9_ + 1 int_cand_flow_1_9,1,2_ <= 0
c1576: -1 int_line_decision_var_1_9_ - 1 int_cand_flow_1_9,1,2_ <= 0
c1577: 5 int_line_decision_var_1_9_ - 1 int_cand_flow_1_9,2,2_ - 5.027652086475616 node_voltage_phase_angle_1,8,2,2_ + 5.027652086475616 node_voltage_phase_angle_1,13,2,2_ <= 5
c1578: 5 int_line_decision_var_1_9_ + 1 int_cand_flow_1_9,2,2_ + 5.027652086475616 node_voltage_phase_angle_1,8,2,2_ - 5.027652086475616 node_voltage_phase_angle_1,13,2,2_ <= 5
c1579: -1 int_line_decision_var_1_9_ + 1 int_cand_flow_1_9,2,2_ <= 0
c1580: -1 int_line_decision_var_1_9_ - 1 int_cand_flow_1_9,2,2_ <= 0
c1581: 5 int_line_decision_var_1_9_ - 1 int_cand_flow_1_9,3,2_ - 5.027652086475616 node_voltage_phase_angle_1,8,3,2_ + 5.027652086475616 node_voltage_phase_angle_1,13,3,2_ <= 5
c1582: 5 int_line_decision_var_1_9_ + 1 int_cand_flow_1_9,3,2_ + 5.027652086475616 node_voltage_phase_angle_1,8,3,2_ - 5.027652086475616 node_voltage_phase_angle_1,13,3,2_ <= 5
c1583: -1 int_line_decision_var_1_9_ + 1 int_cand_flow_1_9,3,2_ <= 0
c1584: -1 int_line_decision_var_1_9_ - 1 int_cand_flow_1_9,3,2_ <= 0
c1585: 5 int_line_decision_var_1_9_ - 1 int_cand_flow_1_9,4,2_ - 5.027652086475616 node_voltage_phase_angle_1,8,4,2_ + 5.027652086475616 node_voltage_phase_angle_1,13,4,2_ <= 5
c1586: 5 int_line_decision_var_1_9_ + 1 int_cand_flow_1_9,4,2_ + 5.027652086475616 node_voltage_phase_angle_1,8,4,2_ - 5.027652086475616 node_voltage_phase_angle_1,13,4,2_ <= 5
c1587: -1 int_line_decision_var_1_9_ + 1 int_cand_flow_1_9,4,2_ <= 0
c1588: -1 int_line_decision_var_1_9_ - 1 int_cand_flow_1_9,4,2_ <= 0
c1589: 5 int_line_decision_var_1_10_ - 1 int_cand_flow_1_10,1,1_ - 3.9091513232477233 node_voltage_phase_angle_1,1,1,1_ + 3.9091513232477233 node_voltage_phase_angle_1,14,1,1_ <= 5
c1590: 5 int_line_decision_var_1_10_ + 1 int_cand_flow_1_10,1,1_ + 3.9091513232477233 node_voltage_phase_angle_1,1,1,1_ - 3.9091513232477233 node_voltage_phase_angle_1,14,1,1_ <= 5
c1591: -1 int_line_decision_var_1_10_ + 1 int_cand_flow_1_10,1,1_ <= 0
c1592: -1 int_line_decision_var_1_10_ - 1 int_cand_flow_1_10,1,1_ <= 0
c1593: 5 int_line_decision_var_1_10_ - 1 int_cand_flow_1_10,2,1_ - 3.9091513232477233 node_voltage_phase_angle_1,1,2,1_ + 3.9091513232477233 node_voltage_phase_angle_1,14,2,1_ <= 5
c1594: 5 int_line_decision_var_1_10_ + 1 int_cand_flow_1_10,2,1_ + 3.9091513232477233 node_voltage_phase_angle_1,1,2,1_ - 3.9091513232477233 node_voltage_phase_angle_1,14,2,1_ <= 5
c1595: -1 int_line_decision_var_1_10_ + 1 int_cand_flow_1_10,2,1_ <= 0
c1596: -1 int_line_decision_var_1_10_ - 1 int_cand_flow_1_10,2,1_ <= 0
c1597: 5 int_line_decision_var_1_10_ - 1 int_cand_flow_1_10,3,1_ - 3.9091513232477233 node_voltage_phase_angle_1,1,3,1_ + 3.9091513232477233 node_voltage_phase_angle_1,14,3,1_ <= 5
c1598: 5 int_line_decision_var_1_10_ + 1 int_cand_flow_1_10,3,1_ + 3.9091513232477233 node_voltage_phase_angle_1,1,3,1_ - 3.9091513232477233 node_voltage_phase_angle_1,14,3,1_ <= 5
c1599: -1 int_line_decision_var_1_10_ + 1 int_cand_flow_1_10,3,1_ <= 0
c1600: -1 int_line_decision_var_1_10_ - 1 int_cand_flow_1_10,3,1_ <= 0
c1601: 5 int_line_decision_var_1_10_ - 1 int_cand_flow_1_10,4,1_ - 3.9091513232477233 node_voltage_phase_angle_1,1,4,1_ + 3.9091513232477233 node_voltage_phase_angle_1,14,4,1_ <= 5
c1602: 5 int_line_decision_var_1_10_ + 1 int_cand_flow_1_10,4,1_ + 3.9091513232477233 node_voltage_phase_angle_1,1,4,1_ - 3.9091513232477233 node_voltage_phase_angle_1,14,4,1_ <= 5
c1603: -1 int_line_decision_var_1_10_ + 1 int_cand_flow_1_10,4,1_ <= 0
c1604: -1 int_line_decision_var_1_10_ - 1 int_cand_flow_1_10,4,1_ <= 0
c1605: 5 int_line_decision_var_1_10_ - 1 int_cand_flow_1_10,1,2_ - 3.9091513232477233 node_voltage_phase_angle_1,1,1,2_ + 3.9091513232477233 node_voltage_phase_angle_1,14,1,2_ <= 5
c1606: 5 int_line_decision_var_1_10_ + 1 int_cand_flow_1_10,1,2_ + 3.9091513232477233 node_voltage_phase_angle_1,1,1,2_ - 3.9091513232477233 node_voltage_phase_angle_1,14,1,2_ <= 5
c1607: -1 int_line_decision_var_1_10_ + 1 int_cand_flow_1_10,1,2_ <= 0
c1608: -1 int_line_decision_var_1_10_ - 1 int_cand_flow_1_10,1,2_ <= 0
c1609: 5 int_line_decision_var_1_10_ - 1 int_cand_flow_1_10,2,2_ - 3.9091513232477233 node_voltage_phase_angle_1,1,2,2_ + 3.9091513232477233 node_voltage_phase_angle_1,14,2,2_ <= 5
c1610: 5 int_line_decision_var_1_10_ + 1 int_cand_flow_1_10,2,2_ + 3.9091513232477233 node_voltage_phase_angle_1,1,2,2_ - 3.9091513232477233 node_voltage_phase_angle_1,14,2,2_ <= 5
c1611: -1 int_line_decision_var_1_10_ + 1 int_cand_flow_1_10,2,2_ <= 0
c1612: -1 int_line_decision_var_1_10_ - 1 int_cand_flow_1_10,2,2_ <= 0
c1613: 5 int_line_decision_var_1_10_ - 1 int_cand_flow_1_10,3,2_ - 3.9091513232477233 node_voltage_phase_angle_1,1,3,2_ + 3.9091513232477233 node_voltage_phase_angle_1,14,3,2_ <= 5
c1614: 5 int_line_decision_var_1_10_ + 1 int_cand_flow_1_10,3,2_ + 3.9091513232477233 node_voltage_phase_angle_1,1,3,2_ - 3.9091513232477233 node_voltage_phase_angle_1,14,3,2_ <= 5
c1615: -1 int_line_decision_var_1_10_ + 1 int_cand_flow_1_10,3,2_ <= 0
c1616: -1 int_line_decision_var_1_10_ - 1 int_cand_flow_1_10,3,2_ <= 0
c1617: 5 int_line_decision_var_1_10_ - 1 int_cand_flow_1_10,4,2_ - 3.9091513232477233 node_voltage_phase_angle_1,1,4,2_ + 3.9091513232477233 node_voltage_phase_angle_1,14,4,2_ <= 5
c1618: 5 int_line_decision_var_1_10_ + 1 int_cand_flow_1_10,4,2_ + 3.9091513232477233 node_voltage_phase_angle_1,1,4,2_ - 3.9091513232477233 node_voltage_phase_angle_1,14,4,2_ <= 5
c1619: -1 int_line_decision_var_1_10_ + 1 int_cand_flow_1_10,4,2_ <= 0
c1620: -1 int_line_decision_var_1_10_ - 1 int_cand_flow_1_10,4,2_ <= 0
c1621: 5 int_line_decision_var_2_1_ - 1 int_cand_flow_2_1,1,1_ - 13.35113484646195 node_voltage_phase_angle_2,4,1,1_ + 13.35113484646195 node_voltage_phase_angle_2,23,1,1_ <= 5
c1622: 5 int_line_decision_var_2_1_ + 1 int_cand_flow_2_1,1,1_ + 13.35113484646195 node_voltage_phase_angle_2,4,1,1_ - 13.35113484646195 node_voltage_phase_angle_2,23,1,1_ <= 5
c1623: -1 int_line_decision_var_2_1_ + 1 int_cand_flow_2_1,1,1_ <= 0
c1624: -1 int_line_decision_var_2_1_ - 1 int_cand_flow_2_1,1,1_ <= 0
c1625: 5 int_line_decision_var_2_1_ - 1 int_cand_flow_2_1,2,1_ - 13.35113484646195 node_voltage_phase_angle_2,4,2,1_ + 13.35113484646195 node_voltage_phase_angle_2,23,2,1_ <= 5
c1626: 5 int_line_decision_var_2_1_ + 1 int_cand_flow_2_1,2,1_ + 13.35113484646195 node_voltage_phase_angle_2,4,2,1_ - 13.35113484646195 node_voltage_phase_angle_2,23,2,1_ <= 5
c1627: -1 int_line_decision_var_2_1_ + 1 int_cand_flow_2_1,2,1_ <= 0
c1628: -1 int_line_decision_var_2_1_ - 1 int_cand_flow_2_1,2,1_ <= 0
c1629: 5 int_line_decision_var_2_1_ - 1 int_cand_flow_2_1,3,1_ - 13.35113484646195 node_voltage_phase_angle_2,4,3,1_ + 13.35113484646195 node_voltage_phase_angle_2,23,3,1_ <= 5
c1630: 5 int_line_decision_var_2_1_ + 1 int_cand_flow_2_1,3,1_ + 13.35113484646195 node_voltage_phase_angle_2,4,3,1_ - 13.35113484646195 node_voltage_phase_angle_2,23,3,1_ <= 5
c1631: -1 int_line_decision_var_2_1_ + 1 int_cand_flow_2_1,3,1_ <= 0
c1632: -1 int_line_decision_var_2_1_ - 1 int_cand_flow_2_1,3,1_ <= 0
c1633: 5 int_line_decision_var_2_1_ - 1 int_cand_flow_2_1,4,1_ - 13.35113484646195 node_voltage_phase_angle_2,4,4,1_ + 13.35113484646195 node_voltage_phase_angle_2,23,4,1_ <= 5
c1634: 5 int_line_decision_var_2_1_ + 1 int_cand_flow_2_1,4,1_ + 13.35113484646195 node_voltage_phase_angle_2,4,4,1_ - 13.35113484646195 node_voltage_phase_angle_2,23,4,1_ <= 5
c1635: -1 int_line_decision_var_2_1_ + 1 int_cand_flow_2_1,4,1_ <= 0
c1636: -1 int_line_decision_var_2_1_ - 1 int_cand_flow_2_1,4,1_ <= 0
c1637: 5 int_line_decision_var_2_1_ - 1 int_cand_flow_2_1,1,2_ - 13.35113484646195 node_voltage_phase_angle_2,4,1,2_ + 13.35113484646195 node_voltage_phase_angle_2,23,1,2_ <= 5
c1638: 5 int_line_decision_var_2_1_ + 1 int_cand_flow_2_1,1,2_ + 13.35113484646195 node_voltage_phase_angle_2,4,1,2_ - 13.35113484646195 node_voltage_phase_angle_2,23,1,2_ <= 5
c1639: -1 int_line_decision_var_2_1_ + 1 int_cand_flow_2_1,1,2_ <= 0
c1640: -1 int_line_decision_var_2_1_ - 1 int_cand_flow_2_1,1,2_ <= 0
c1641: 5 int_line_decision_var_2_1_ - 1 int_cand_flow_2_1,2,2_ - 13.35113484646195 node_voltage_phase_angle_2,4,2,2_ + 13.35113484646195 node_voltage_phase_angle_2,23,2,2_ <= 5
c1642: 5 int_line_decision_var_2_1_ + 1 int_cand_flow_2_1,2,2_ + 13.35113484646195 node_voltage_phase_angle_2,4,2,2_ - 13.35113484646195 node_voltage_phase_angle_2,23,2,2_ <= 5
c1643: -1 int_line_decision_var_2_1_ + 1 int_cand_flow_2_1,2,2_ <= 0
c1644: -1 int_line_decision_var_2_1_ - 1 int_cand_flow_2_1,2,2_ <= 0
c1645: 5 int_line_decision_var_2_1_ - 1 int_cand_flow_2_1,3,2_ - 13.35113484646195 node_voltage_phase_angle_2,4,3,2_ + 13.35113484646195 node_voltage_phase_angle_2,23,3,2_ <= 5
c1646: 5 int_line_decision_var_2_1_ + 1 int_cand_flow_2_1,3,2_ + 13.35113484646195 node_voltage_phase_angle_2,4,3,2_ - 13.35113484646195 node_voltage_phase_angle_2,23,3,2_ <= 5
c1647: -1 int_line_decision_var_2_1_ + 1 int_cand_flow_2_1,3,2_ <= 0
c1648: -1 int_line_decision_var_2_1_ - 1 int_cand_flow_2_1,3,2_ <= 0
c1649: 5 int_line_decision_var_2_1_ - 1 int_cand_flow_2_1,4,2_ - 13.35113484646195 node_voltage_phase_angle_2,4,4,2_ + 13.35113484646195 node_voltage_phase_angle_2,23,4,2_ <= 5
c1650: 5 int_line_decision_var_2_1_ + 1 int_cand_flow_2_1,4,2_ + 13.35113484646195 node_voltage_phase_angle_2,4,4,2_ - 13.35113484646195 node_voltage_phase_angle_2,23,4,2_ <= 5
c1651: -1 int_line_decision_var_2_1_ + 1 int_cand_flow_2_1,4,2_ <= 0
c1652: -1 int_line_decision_var_2_1_ - 1 int_cand_flow_2_1,4,2_ <= 0
c1653: 5 int_line_decision_var_2_2_ - 1 int_cand_flow_2_2,1,1_ + 6.6711140760507 node_voltage_phase_angle_2,2,1,1_ - 6.6711140760507 node_voltage_phase_angle_2,15,1,1_ <= 5
c1654: 5 int_line_decision_var_2_2_ + 1 int_cand_flow_2_2,1,1_ - 6.6711140760507 node_voltage_phase_angle_2,2,1,1_ + 6.6711140760507 node_voltage_phase_angle_2,15,1,1_ <= 5
c1655: -1.01 int_line_decision_var_2_2_ + 1 int_cand_flow_2_2,1,1_ <= 0
c1656: -1.01 int_line_decision_var_2_2_ - 1 int_cand_flow_2_2,1,1_ <= 0
c1657: 5 int_line_decision_var_2_2_ - 1 int_cand_flow_2_2,2,1_ + 6.6711140760507 node_voltage_phase_angle_2,2,2,1_ - 6.6711140760507 node_voltage_phase_angle_2,15,2,1_ <= 5
c1658: 5 int_line_decision_var_2_2_ + 1 int_cand_flow_2_2,2,1_ - 6.6711140760507 node_voltage_phase_angle_2,2,2,1_ + 6.6711140760507 node_voltage_phase_angle_2,15,2,1_ <= 5
c1659: -1.01 int_line_decision_var_2_2_ + 1 int_cand_flow_2_2,2,1_ <= 0
c1660: -1.01 int_line_decision_var_2_2_ - 1 int_cand_flow_2_2,2,1_ <= 0
c1661: 5 int_line_decision_var_2_2_ - 1 int_cand_flow_2_2,3,1_ + 6.6711140760507 node_voltage_phase_angle_2,2,3,1_ - 6.6711140760507 node_voltage_phase_angle_2,15,3,1_ <= 5
c1662: 5 int_line_decision_var_2_2_ + 1 int_cand_flow_2_2,3,1_ - 6.6711140760507 node_voltage_phase_angle_2,2,3,1_ + 6.6711140760507 node_voltage_phase_angle_2,15,3,1_ <= 5
c1663: -1.01 int_line_decision_var_2_2_ + 1 int_cand_flow_2_2,3,1_ <= 0
c1664: -1.01 int_line_decision_var_2_2_ - 1 int_cand_flow_2_2,3,1_ <= 0
c1665: 5 int_line_decision_var_2_2_ - 1 int_cand_flow_2_2,4,1_ + 6.6711140760507 node_voltage_phase_angle_2,2,4,1_ - 6.6711140760507 node_voltage_phase_angle_2,15,4,1_ <= 5
c1666: 5 int_line_decision_var_2_2_ + 1 int_cand_flow_2_2,4,1_ - 6.6711140760507 node_voltage_phase_angle_2,2,4,1_ + 6.6711140760507 node_voltage_phase_angle_2,15,4,1_ <= 5
c1667: -1.01 int_line_decision_var_2_2_ + 1 int_cand_flow_2_2,4,1_ <= 0
c1668: -1.01 int_line_decision_var_2_2_ - 1 int_cand_flow_2_2,4,1_ <= 0
c1669: 5 int_line_decision_var_2_2_ - 1 int_cand_flow_2_2,1,2_ + 6.6711140760507 node_voltage_phase_angle_2,2,1,2_ - 6.6711140760507 node_voltage_phase_angle_2,15,1,2_ <= 5
c1670: 5 int_line_decision_var_2_2_ + 1 int_cand_flow_2_2,1,2_ - 6.6711140760507 node_voltage_phase_angle_2,2,1,2_ + 6.6711140760507 node_voltage_phase_angle_2,15,1,2_ <= 5
c1671: -1.01 int_line_decision_var_2_2_ + 1 int_cand_flow_2_2,1,2_ <= 0
c1672: -1.01 int_line_decision_var_2_2_ - 1 int_cand_flow_2_2,1,2_ <= 0
c1673: 5 int_line_decision_var_2_2_ - 1 int_cand_flow_2_2,2,2_ + 6.6711140760507 node_voltage_phase_angle_2,2,2,2_ - 6.6711140760507 node_voltage_phase_angle_2,15,2,2_ <= 5
c1674: 5 int_line_decision_var_2_2_ + 1 int_cand_flow_2_2,2,2_ - 6.6711140760507 node_voltage_phase_angle_2,2,2,2_ + 6.6711140760507 node_voltage_phase_angle_2,15,2,2_ <= 5
c1675: -1.01 int_line_decision_var_2_2_ + 1 int_cand_flow_2_2,2,2_ <= 0
c1676: -1.01 int_line_decision_var_2_2_ - 1 int_cand_flow_2_2,2,2_ <= 0
c1677: 5 int_line_decision_var_2_2_ - 1 int_cand_flow_2_2,3,2_ + 6.6711140760507 node_voltage_phase_angle_2,2,3,2_ - 6.6711140760507 node_voltage_phase_angle_2,15,3,2_ <= 5
c1678: 5 int_line_decision_var_2_2_ + 1 int_cand_flow_2_2,3,2_ - 6.6711140760507 node_voltage_phase_angle_2,2,3,2_ + 6.6711140760507 node_voltage_phase_angle_2,15,3,2_ <= 5
c1679: -1.01 int_line_decision_var_2_2_ + 1 int_cand_flow_2_2,3,2_ <= 0
c1680: -1.01 int_line_decision_var_2_2_ - 1 int_cand_flow_2_2,3,2_ <= 0
c1681: 5 int_line_decision_var_2_2_ - 1 int_cand_flow_2_2,4,2_ + 6.6711140760507 node_voltage_phase_angle_2,2,4,2_ - 6.6711140760507 node_voltage_phase_angle_2,15,4,2_ <= 5
c1682: 5 int_line_decision_var_2_2_ + 1 int_cand_flow_2_2,4,2_ - 6.6711140760507 node_voltage_phase_angle_2,2,4,2_ + 6.6711140760507 node_voltage_phase_angle_2,15,4,2_ <= 5
c1683: -1.01 int_line_decision_var_2_2_ + 1 int_cand_flow_2_2,4,2_ <= 0
c1684: -1.01 int_line_decision_var_2_2_ - 1 int_cand_flow_2_2,4,2_ <= 0
c1685: 5 int_line_decision_var_2_3_ - 1 int_cand_flow_2_3,1,1_ + 7.142857142857142 node_voltage_phase_angle_2,1,1,1_ - 7.142857142857142 node_voltage_phase_angle_2,2,1,1_ <= 5
c1686: 5 int_line_decision_var_2_3_ + 1 int_cand_flow_2_3,1,1_ - 7.142857142857142 node_voltage_phase_angle_2,1,1,1_ + 7.142857142857142 node_voltage_phase_angle_2,2,1,1_ <= 5
c1687: -1.02 int_line_decision_var_2_3_ + 1 int_cand_flow_2_3,1,1_ <= 0
c1688: -1.02 int_line_decision_var_2_3_ - 1 int_cand_flow_2_3,1,1_ <= 0
c1689: 5 int_line_decision_var_2_3_ - 1 int_cand_flow_2_3,2,1_ + 7.142857142857142 node_voltage_phase_angle_2,1,2,1_ - 7.142857142857142 node_voltage_phase_angle_2,2,2,1_ <= 5
c1690: 5 int_line_decision_var_2_3_ + 1 int_cand_flow_2_3,2,1_ - 7.142857142857142 node_voltage_phase_angle_2,1,2,1_ + 7.142857142857142 node_voltage_phase_angle_2,2,2,1_ <= 5
c1691: -1.02 int_line_decision_var_2_3_ + 1 int_cand_flow_2_3,2,1_ <= 0
c1692: -1.02 int_line_decision_var_2_3_ - 1 int_cand_flow_2_3,2,1_ <= 0
c1693: 5 int_line_decision_var_2_3_ - 1 int_cand_flow_2_3,3,1_ + 7.142857142857142 node_voltage_phase_angle_2,1,3,1_ - 7.142857142857142 node_voltage_phase_angle_2,2,3,1_ <= 5
c1694: 5 int_line_decision_var_2_3_ + 1 int_cand_flow_2_3,3,1_ - 7.142857142857142 node_voltage_phase_angle_2,1,3,1_ + 7.142857142857142 node_voltage_phase_angle_2,2,3,1_ <= 5
c1695: -1.02 int_line_decision_var_2_3_ + 1 int_cand_flow_2_3,3,1_ <= 0
c1696: -1.02 int_line_decision_var_2_3_ - 1 int_cand_flow_2_3,3,1_ <= 0
c1697: 5 int_line_decision_var_2_3_ - 1 int_cand_flow_2_3,4,1_ + 7.142857142857142 node_voltage_phase_angle_2,1,4,1_ - 7.142857142857142 node_voltage_phase_angle_2,2,4,1_ <= 5
c1698: 5 int_line_decision_var_2_3_ + 1 int_cand_flow_2_3,4,1_ - 7.142857142857142 node_voltage_phase_angle_2,1,4,1_ + 7.142857142857142 node_voltage_phase_angle_2,2,4,1_ <= 5
c1699: -1.02 int_line_decision_var_2_3_ + 1 int_cand_flow_2_3,4,1_ <= 0
c1700: -1.02 int_line_decision_var_2_3_ - 1 int_cand_flow_2_3,4,1_ <= 0
c1701: 5 int_line_decision_var_2_3_ - 1 int_cand_flow_2_3,1,2_ + 7.142857142857142 node_voltage_phase_angle_2,1,1,2_ - 7.142857142857142 node_voltage_phase_angle_2,2,1,2_ <= 5
c1702: 5 int_line_decision_var_2_3_ + 1 int_cand_flow_2_3,1,2_ - 7.142857142857142 node_voltage_phase_angle_2,1,1,2_ + 7.142857142857142 node_voltage_phase_angle_2,2,1,2_ <= 5
c1703: -1.02 int_line_decision_var_2_3_ + 1 int_cand_flow_2_3,1,2_ <= 0
c1704: -1.02 int_line_decision_var_2_3_ - 1 int_cand_flow_2_3,1,2_ <= 0
c1705: 5 int_line_decision_var_2_3_ - 1 int_cand_flow_2_3,2,2_ + 7.142857142857142 node_voltage_phase_angle_2,1,2,2_ - 7.142857142857142 node_voltage_phase_angle_2,2,2,2_ <= 5
c1706: 5 int_line_decision_var_2_3_ + 1 int_cand_flow_2_3,2,2_ - 7.142857142857142 node_voltage_phase_angle_2,1,2,2_ + 7.142857142857142 node_voltage_phase_angle_2,2,2,2_ <= 5
c1707: -1.02 int_line_decision_var_2_3_ + 1 int_cand_flow_2_3,2,2_ <= 0
c1708: -1.02 int_line_decision_var_2_3_ - 1 int_cand_flow_2_3,2,2_ <= 0
c1709: 5 int_line_decision_var_2_3_ - 1 int_cand_flow_2_3,3,2_ + 7.142857142857142 node_voltage_phase_angle_2,1,3,2_ - 7.142857142857142 node_voltage_phase_angle_2,2,3,2_ <= 5
c1710: 5 int_line_decision_var_2_3_ + 1 int_cand_flow_2_3,3,2_ - 7.142857142857142 node_voltage_phase_angle_2,1,3,2_ + 7.142857142857142 node_voltage_phase_angle_2,2,3,2_ <= 5
c1711: -1.02 int_line_decision_var_2_3_ + 1 int_cand_flow_2_3,3,2_ <= 0
c1712: -1.02 int_line_decision_var_2_3_ - 1 int_cand_flow_2_3,3,2_ <= 0
c1713: 5 int_line_decision_var_2_3_ - 1 int_cand_flow_2_3,4,2_ + 7.142857142857142 node_voltage_phase_angle_2,1,4,2_ - 7.142857142857142 node_voltage_phase_angle_2,2,4,2_ <= 5
c1714: 5 int_line_decision_var_2_3_ + 1 int_cand_flow_2_3,4,2_ - 7.142857142857142 node_voltage_phase_angle_2,1,4,2_ + 7.142857142857142 node_voltage_phase_angle_2,2,4,2_ <= 5
c1715: -1.02 int_line_decision_var_2_3_ + 1 int_cand_flow_2_3,4,2_ <= 0
c1716: -1.02 int_line_decision_var_2_3_ - 1 int_cand_flow_2_3,4,2_ <= 0
c1717: 5 int_line_decision_var_2_4_ - 1 int_cand_flow_2_4,1,1_ - 3.907776475185619 node_voltage_phase_angle_2,2,1,1_ + 3.907776475185619 node_voltage_phase_angle_2,5,1,1_ <= 5
c1718: 5 int_line_decision_var_2_4_ + 1 int_cand_flow_2_4,1,1_ + 3.907776475185619 node_voltage_phase_angle_2,2,1,1_ - 3.907776475185619 node_voltage_phase_angle_2,5,1,1_ <= 5
c1719: -1.03 int_line_decision_var_2_4_ + 1 int_cand_flow_2_4,1,1_ <= 0
c1720: -1.03 int_line_decision_var_2_4_ - 1 int_cand_flow_2_4,1,1_ <= 0
c1721: 5 int_line_decision_var_2_4_ - 1 int_cand_flow_2_4,2,1_ - 3.907776475185619 node_voltage_phase_angle_2,2,2,1_ + 3.907776475185619 node_voltage_phase_angle_2,5,2,1_ <= 5
c1722: 5 int_line_decision_var_2_4_ + 1 int_cand_flow_2_4,2,1_ + 3.907776475185619 node_voltage_phase_angle_2,2,2,1_ - 3.907776475185619 node_voltage_phase_angle_2,5,2,1_ <= 5
c1723: -1.03 int_line_decision_var_2_4_ + 1 int_cand_flow_2_4,2,1_ <= 0
c1724: -1.03 int_line_decision_var_2_4_ - 1 int_cand_flow_2_4,2,1_ <= 0
c1725: 5 int_line_decision_var_2_4_ - 1 int_cand_flow_2_4,3,1_ - 3.907776475185619 node_voltage_phase_angle_2,2,3,1_ + 3.907776475185619 node_voltage_phase_angle_2,5,3,1_ <= 5
c1726: 5 int_line_decision_var_2_4_ + 1 int_cand_flow_2_4,3,1_ + 3.907776475185619 node_voltage_phase_angle_2,2,3,1_ - 3.907776475185619 node_voltage_phase_angle_2,5,3,1_ <= 5
c1727: -1.03 int_line_decision_var_2_4_ + 1 int_cand_flow_2_4,3,1_ <= 0
c1728: -1.03 int_line_decision_var_2_4_ - 1 int_cand_flow_2_4,3,1_ <= 0
c1729: 5 int_line_decision_var_2_4_ - 1 int_cand_flow_2_4,4,1_ - 3.907776475185619 node_voltage_phase_angle_2,2,4,1_ + 3.907776475185619 node_voltage_phase_angle_2,5,4,1_ <= 5
c1730: 5 int_line_decision_var_2_4_ + 1 int_cand_flow_2_4,4,1_ + 3.907776475185619 node_voltage_phase_angle_2,2,4,1_ - 3.907776475185619 node_voltage_phase_angle_2,5,4,1_ <= 5
c1731: -1.03 int_line_decision_var_2_4_ + 1 int_cand_flow_2_4,4,1_ <= 0
c1732: -1.03 int_line_decision_var_2_4_ - 1 int_cand_flow_2_4,4,1_ <= 0
c1733: 5 int_line_decision_var_2_4_ - 1 int_cand_flow_2_4,1,2_ - 3.907776475185619 node_voltage_phase_angle_2,2,1,2_ + 3.907776475185619 node_voltage_phase_angle_2,5,1,2_ <= 5
c1734: 5 int_line_decision_var_2_4_ + 1 int_cand_flow_2_4,1,2_ + 3.907776475185619 node_voltage_phase_angle_2,2,1,2_ - 3.907776475185619 node_voltage_phase_angle_2,5,1,2_ <= 5
c1735: -1.03 int_line_decision_var_2_4_ + 1 int_cand_flow_2_4,1,2_ <= 0
c1736: -1.03 int_line_decision_var_2_4_ - 1 int_cand_flow_2_4,1,2_ <= 0
c1737: 5 int_line_decision_var_2_4_ - 1 int_cand_flow_2_4,2,2_ - 3.907776475185619 node_voltage_phase_angle_2,2,2,2_ + 3.907776475185619 node_voltage_phase_angle_2,5,2,2_ <= 5
c1738: 5 int_line_decision_var_2_4_ + 1 int_cand_flow_2_4,2,2_ + 3.907776475185619 node_voltage_phase_angle_2,2,2,2_ - 3.907776475185619 node_voltage_phase_angle_2,5,2,2_ <= 5
c1739: -1.03 int_line_decision_var_2_4_ + 1 int_cand_flow_2_4,2,2_ <= 0
c1740: -1.03 int_line_decision_var_2_4_ - 1 int_cand_flow_2_4,2,2_ <= 0
c1741: 5 int_line_decision_var_2_4_ - 1 int_cand_flow_2_4,3,2_ - 3.907776475185619 node_voltage_phase_angle_2,2,3,2_ + 3.907776475185619 node_voltage_phase_angle_2,5,3,2_ <= 5
c1742: 5 int_line_decision_var_2_4_ + 1 int_cand_flow_2_4,3,2_ + 3.907776475185619 node_voltage_phase_angle_2,2,3,2_ - 3.907776475185619 node_voltage_phase_angle_2,5,3,2_ <= 5
c1743: -1.03 int_line_decision_var_2_4_ + 1 int_cand_flow_2_4,3,2_ <= 0
c1744: -1.03 int_line_decision_var_2_4_ - 1 int_cand_flow_2_4,3,2_ <= 0
c1745: 5 int_line_decision_var_2_4_ - 1 int_cand_flow_2_4,4,2_ - 3.907776475185619 node_voltage_phase_angle_2,2,4,2_ + 3.907776475185619 node_voltage_phase_angle_2,5,4,2_ <= 5
c1746: 5 int_line_decision_var_2_4_ + 1 int_cand_flow_2_4,4,2_ + 3.907776475185619 node_voltage_phase_angle_2,2,4,2_ - 3.907776475185619 node_voltage_phase_angle_2,5,4,2_ <= 5
c1747: -1.03 int_line_decision_var_2_4_ + 1 int_cand_flow_2_4,4,2_ <= 0
c1748: -1.03 int_line_decision_var_2_4_ - 1 int_cand_flow_2_4,4,2_ <= 0
c1749: 5 int_line_decision_var_2_5_ - 1 int_cand_flow_2_5,1,1_ - 7.668711656441719 node_voltage_phase_angle_2,4,1,1_ + 7.668711656441719 node_voltage_phase_angle_2,10,1,1_ <= 5
c1750: 5 int_line_decision_var_2_5_ + 1 int_cand_flow_2_5,1,1_ + 7.668711656441719 node_voltage_phase_angle_2,4,1,1_ - 7.668711656441719 node_voltage_phase_angle_2,10,1,1_ <= 5
c1751: -1.04 int_line_decision_var_2_5_ + 1 int_cand_flow_2_5,1,1_ <= 0
c1752: -1.04 int_line_decision_var_2_5_ - 1 int_cand_flow_2_5,1,1_ <= 0
c1753: 5 int_line_decision_var_2_5_ - 1 int_cand_flow_2_5,2,1_ - 7.668711656441719 node_voltage_phase_angle_2,4,2,1_ + 7.668711656441719 node_voltage_phase_angle_2,10,2,1_ <= 5
c1754: 5 int_line_decision_var_2_5_ + 1 int_cand_flow_2_5,2,1_ + 7.668711656441719 node_voltage_phase_angle_2,4,2,1_ - 7.668711656441719 node_voltage_phase_angle_2,10,2,1_ <= 5
c1755: -1.04 int_line_decision_var_2_5_ + 1 int_cand_flow_2_5,2,1_ <= 0
c1756: -1.04 int_line_decision_var_2_5_ - 1 int_cand_flow_2_5,2,1_ <= 0
c1757: 5 int_line_decision_var_2_5_ - 1 int_cand_flow_2_5,3,1_ - 7.668711656441719 node_voltage_phase_angle_2,4,3,1_ + 7.668711656441719 node_voltage_phase_angle_2,10,3,1_ <= 5
c1758: 5 int_line_decision_var_2_5_ + 1 int_cand_flow_2_5,3,1_ + 7.668711656441719 node_voltage_phase_angle_2,4,3,1_ - 7.668711656441719 node_voltage_phase_angle_2,10,3,1_ <= 5
c1759: -1.04 int_line_decision_var_2_5_ + 1 int_cand_flow_2_5,3,1_ <= 0
c1760: -1.04 int_line_decision_var_2_5_ - 1 int_cand_flow_2_5,3,1_ <= 0
c1761: 5 int_line_decision_var_2_5_ - 1 int_cand_flow_2_5,4,1_ - 7.668711656441719 node_voltage_phase_angle_2,4,4,1_ + 7.668711656441719 node_voltage_phase_angle_2,10,4,1_ <= 5
c1762: 5 int_line_decision_var_2_5_ + 1 int_cand_flow_2_5,4,1_ + 7.668711656441719 node_voltage_phase_angle_2,4,4,1_ - 7.668711656441719 node_voltage_phase_angle_2,10,4,1_ <= 5
c1763: -1.04 int_line_decision_var_2_5_ + 1 int_cand_flow_2_5,4,1_ <= 0
c1764: -1.04 int_line_decision_var_2_5_ - 1 int_cand_flow_2_5,4,1_ <= 0
c1765: 5 int_line_decision_var_2_5_ - 1 int_cand_flow_2_5,1,2_ - 7.668711656441719 node_voltage_phase_angle_2,4,1,2_ + 7.668711656441719 node_voltage_phase_angle_2,10,1,2_ <= 5
c1766: 5 int_line_decision_var_2_5_ + 1 int_cand_flow_2_5,1,2_ + 7.668711656441719 node_voltage_phase_angle_2,4,1,2_ - 7.668711656441719 node_voltage_phase_angle_2,10,1,2_ <= 5
c1767: -1.04 int_line_decision_var_2_5_ + 1 int_cand_flow_2_5,1,2_ <= 0
c1768: -1.04 int_line_decision_var_2_5_ - 1 int_cand_flow_2_5,1,2_ <= 0
c1769: 5 int_line_decision_var_2_5_ - 1 int_cand_flow_2_5,2,2_ - 7.668711656441719 node_voltage_phase_angle_2,4,2,2_ + 7.668711656441719 node_voltage_phase_angle_2,10,2,2_ <= 5
c1770: 5 int_line_decision_var_2_5_ + 1 int_cand_flow_2_5,2,2_ + 7.668711656441719 node_voltage_phase_angle_2,4,2,2_ - 7.668711656441719 node_voltage_phase_angle_2,10,2,2_ <= 5
c1771: -1.04 int_line_decision_var_2_5_ + 1 int_cand_flow_2_5,2,2_ <= 0
c1772: -1.04 int_line_decision_var_2_5_ - 1 int_cand_flow_2_5,2,2_ <= 0
c1773: 5 int_line_decision_var_2_5_ - 1 int_cand_flow_2_5,3,2_ - 7.668711656441719 node_voltage_phase_angle_2,4,3,2_ + 7.668711656441719 node_voltage_phase_angle_2,10,3,2_ <= 5
c1774: 5 int_line_decision_var_2_5_ + 1 int_cand_flow_2_5,3,2_ + 7.668711656441719 node_voltage_phase_angle_2,4,3,2_ - 7.668711656441719 node_voltage_phase_angle_2,10,3,2_ <= 5
c1775: -1.04 int_line_decision_var_2_5_ + 1 int_cand_flow_2_5,3,2_ <= 0
c1776: -1.04 int_line_decision_var_2_5_ - 1 int_cand_flow_2_5,3,2_ <= 0
c1777: 5 int_line_decision_var_2_5_ - 1 int_cand_flow_2_5,4,2_ - 7.668711656441719 node_voltage_phase_angle_2,4,4,2_ + 7.668711656441719 node_voltage_phase_angle_2,10,4,2_ <= 5
c1778: 5 int_line_decision_var_2_5_ + 1 int_cand_flow_2_5,4,2_ + 7.668711656441719 node_voltage_phase_angle_2,4,4,2_ - 7.668711656441719 node_voltage_phase_angle_2,10,4,2_ <= 5
c1779: -1.04 int_line_decision_var_2_5_ + 1 int_cand_flow_2_5,4,2_ <= 0
c1780: -1.04 int_line_decision_var_2_5_ - 1 int_cand_flow_2_5,4,2_ <= 0
c1781: 5 int_line_decision_var_2_6_ - 1 int_cand_flow_2_6,1,1_ - 5.032712632108707 node_voltage_phase_angle_2,14,1,1_ + 5.032712632108707 node_voltage_phase_angle_2,19,1,1_ <= 5
c1782: 5 int_line_decision_var_2_6_ + 1 int_cand_flow_2_6,1,1_ + 5.032712632108707 node_voltage_phase_angle_2,14,1,1_ - 5.032712632108707 node_voltage_phase_angle_2,19,1,1_ <= 5
c1783: -1.05 int_line_decision_var_2_6_ + 1 int_cand_flow_2_6,1,1_ <= 0
c1784: -1.05 int_line_decision_var_2_6_ - 1 int_cand_flow_2_6,1,1_ <= 0
c1785: 5 int_line_decision_var_2_6_ - 1 int_cand_flow_2_6,2,1_ - 5.032712632108707 node_voltage_phase_angle_2,14,2,1_ + 5.032712632108707 node_voltage_phase_angle_2,19,2,1_ <= 5
c1786: 5 int_line_decision_var_2_6_ + 1 int_cand_flow_2_6,2,1_ + 5.032712632108707 node_voltage_phase_angle_2,14,2,1_ - 5.032712632108707 node_voltage_phase_angle_2,19,2,1_ <= 5
c1787: -1.05 int_line_decision_var_2_6_ + 1 int_cand_flow_2_6,2,1_ <= 0
c1788: -1.05 int_line_decision_var_2_6_ - 1 int_cand_flow_2_6,2,1_ <= 0
c1789: 5 int_line_decision_var_2_6_ - 1 int_cand_flow_2_6,3,1_ - 5.032712632108707 node_voltage_phase_angle_2,14,3,1_ + 5.032712632108707 node_voltage_phase_angle_2,19,3,1_ <= 5
c1790: 5 int_line_decision_var_2_6_ + 1 int_cand_flow_2_6,3,1_ + 5.032712632108707 node_voltage_phase_angle_2,14,3,1_ - 5.032712632108707 node_voltage_phase_angle_2,19,3,1_ <= 5
c1791: -1.05 int_line_decision_var_2_6_ + 1 int_cand_flow_2_6,3,1_ <= 0
c1792: -1.05 int_line_decision_var_2_6_ - 1 int_cand_flow_2_6,3,1_ <= 0
c1793: 5 int_line_decision_var_2_6_ - 1 int_cand_flow_2_6,4,1_ - 5.032712632108707 node_voltage_phase_angle_2,14,4,1_ + 5.032712632108707 node_voltage_phase_angle_2,19,4,1_ <= 5
c1794: 5 int_line_decision_var_2_6_ + 1 int_cand_flow_2_6,4,1_ + 5.032712632108707 node_voltage_phase_angle_2,14,4,1_ - 5.032712632108707 node_voltage_phase_angle_2,19,4,1_ <= 5
c1795: -1.05 int_line_decision_var_2_6_ + 1 int_cand_flow_2_6,4,1_ <= 0
c1796: -1.05 int_line_decision_var_2_6_ - 1 int_cand_flow_2_6,4,1_ <= 0
c1797: 5 int_line_decision_var_2_6_ - 1 int_cand_flow_2_6,1,2_ - 5.032712632108707 node_voltage_phase_angle_2,14,1,2_ + 5.032712632108707 node_voltage_phase_angle_2,19,1,2_ <= 5
c1798: 5 int_line_decision_var_2_6_ + 1 int_cand_flow_2_6,1,2_ + 5.032712632108707 node_voltage_phase_angle_2,14,1,2_ - 5.032712632108707 node_voltage_phase_angle_2,19,1,2_ <= 5
c1799: -1.05 int_line_decision_var_2_6_ + 1 int_cand_flow_2_6,1,2_ <= 0
c1800: -1.05 int_line_decision_var_2_6_ - 1 int_cand_flow_2_6,1,2_ <= 0
c1801: 5 int_line_decision_var_2_6_ - 1 int_cand_flow_2_6,2,2_ - 5.032712632108707 node_voltage_phase_angle_2,14,2,2_ + 5.032712632108707 node_voltage_phase_angle_2,19,2,2_ <= 5
c1802: 5 int_line_decision_var_2_6_ + 1 int_cand_flow_2_6,2,2_ + 5.032712632108707 node_voltage_phase_angle_2,14,2,2_ - 5.032712632108707 node_voltage_phase_angle_2,19,2,2_ <= 5
c1803: -1.05 int_line_decision_var_2_6_ + 1 int_cand_flow_2_6,2,2_ <= 0
c1804: -1.05 int_line_decision_var_2_6_ - 1 int_cand_flow_2_6,2,2_ <= 0
c1805: 5 int_line_decision_var_2_6_ - 1 int_cand_flow_2_6,3,2_ - 5.032712632108707 node_voltage_phase_angle_2,14,3,2_ + 5.032712632108707 node_voltage_phase_angle_2,19,3,2_ <= 5
c1806: 5 int_line_decision_var_2_6_ + 1 int_cand_flow_2_6,3,2_ + 5.032712632108707 node_voltage_phase_angle_2,14,3,2_ - 5.032712632108707 node_voltage_phase_angle_2,19,3,2_ <= 5
c1807: -1.05 int_line_decision_var_2_6_ + 1 int_cand_flow_2_6,3,2_ <= 0
c1808: -1.05 int_line_decision_var_2_6_ - 1 int_cand_flow_2_6,3,2_ <= 0
c1809: 5 int_line_decision_var_2_6_ - 1 int_cand_flow_2_6,4,2_ - 5.032712632108707 node_voltage_phase_angle_2,14,4,2_ + 5.032712632108707 node_voltage_phase_angle_2,19,4,2_ <= 5
c1810: 5 int_line_decision_var_2_6_ + 1 int_cand_flow_2_6,4,2_ + 5.032712632108707 node_voltage_phase_angle_2,14,4,2_ - 5.032712632108707 node_voltage_phase_angle_2,19,4,2_ <= 5
c1811: -1.05 int_line_decision_var_2_6_ + 1 int_cand_flow_2_6,4,2_ <= 0
c1812: -1.05 int_line_decision_var_2_6_ - 1 int_cand_flow_2_6,4,2_ <= 0
c1813: 5 int_line_decision_var_2_7_ - 1 int_cand_flow_2_7,1,1_ - 5.007511266900351 node_voltage_phase_angle_2,14,1,1_ + 5.007511266900351 node_voltage_phase_angle_2,25,1,1_ <= 5
c1814: 5 int_line_decision_var_2_7_ + 1 int_cand_flow_2_7,1,1_ + 5.007511266900351 node_voltage_phase_angle_2,14,1,1_ - 5.007511266900351 node_voltage_phase_angle_2,25,1,1_ <= 5
c1815: -1.06 int_line_decision_var_2_7_ + 1 int_cand_flow_2_7,1,1_ <= 0
c1816: -1.06 int_line_decision_var_2_7_ - 1 int_cand_flow_2_7,1,1_ <= 0
c1817: 5 int_line_decision_var_2_7_ - 1 int_cand_flow_2_7,2,1_ - 5.007511266900351 node_voltage_phase_angle_2,14,2,1_ + 5.007511266900351 node_voltage_phase_angle_2,25,2,1_ <= 5
c1818: 5 int_line_decision_var_2_7_ + 1 int_cand_flow_2_7,2,1_ + 5.007511266900351 node_voltage_phase_angle_2,14,2,1_ - 5.007511266900351 node_voltage_phase_angle_2,25,2,1_ <= 5
c1819: -1.06 int_line_decision_var_2_7_ + 1 int_cand_flow_2_7,2,1_ <= 0
c1820: -1.06 int_line_decision_var_2_7_ - 1 int_cand_flow_2_7,2,1_ <= 0
c1821: 5 int_line_decision_var_2_7_ - 1 int_cand_flow_2_7,3,1_ - 5.007511266900351 node_voltage_phase_angle_2,14,3,1_ + 5.007511266900351 node_voltage_phase_angle_2,25,3,1_ <= 5
c1822: 5 int_line_decision_var_2_7_ + 1 int_cand_flow_2_7,3,1_ + 5.007511266900351 node_voltage_phase_angle_2,14,3,1_ - 5.007511266900351 node_voltage_phase_angle_2,25,3,1_ <= 5
c1823: -1.06 int_line_decision_var_2_7_ + 1 int_cand_flow_2_7,3,1_ <= 0
c1824: -1.06 int_line_decision_var_2_7_ - 1 int_cand_flow_2_7,3,1_ <= 0
c1825: 5 int_line_decision_var_2_7_ - 1 int_cand_flow_2_7,4,1_ - 5.007511266900351 node_voltage_phase_angle_2,14,4,1_ + 5.007511266900351 node_voltage_phase_angle_2,25,4,1_ <= 5
c1826: 5 int_line_decision_var_2_7_ + 1 int_cand_flow_2_7,4,1_ + 5.007511266900351 node_voltage_phase_angle_2,14,4,1_ - 5.007511266900351 node_voltage_phase_angle_2,25,4,1_ <= 5
c1827: -1.06 int_line_decision_var_2_7_ + 1 int_cand_flow_2_7,4,1_ <= 0
c1828: -1.06 int_line_decision_var_2_7_ - 1 int_cand_flow_2_7,4,1_ <= 0
c1829: 5 int_line_decision_var_2_7_ - 1 int_cand_flow_2_7,1,2_ - 5.007511266900351 node_voltage_phase_angle_2,14,1,2_ + 5.007511266900351 node_voltage_phase_angle_2,25,1,2_ <= 5
c1830: 5 int_line_decision_var_2_7_ + 1 int_cand_flow_2_7,1,2_ + 5.007511266900351 node_voltage_phase_angle_2,14,1,2_ - 5.007511266900351 node_voltage_phase_angle_2,25,1,2_ <= 5
c1831: -1.06 int_line_decision_var_2_7_ + 1 int_cand_flow_2_7,1,2_ <= 0
c1832: -1.06 int_line_decision_var_2_7_ - 1 int_cand_flow_2_7,1,2_ <= 0
c1833: 5 int_line_decision_var_2_7_ - 1 int_cand_flow_2_7,2,2_ - 5.007511266900351 node_voltage_phase_angle_2,14,2,2_ + 5.007511266900351 node_voltage_phase_angle_2,25,2,2_ <= 5
c1834: 5 int_line_decision_var_2_7_ + 1 int_cand_flow_2_7,2,2_ + 5.007511266900351 node_voltage_phase_angle_2,14,2,2_ - 5.007511266900351 node_voltage_phase_angle_2,25,2,2_ <= 5
c1835: -1.06 int_line_decision_var_2_7_ + 1 int_cand_flow_2_7,2,2_ <= 0
c1836: -1.06 int_line_decision_var_2_7_ - 1 int_cand_flow_2_7,2,2_ <= 0
c1837: 5 int_line_decision_var_2_7_ - 1 int_cand_flow_2_7,3,2_ - 5.007511266900351 node_voltage_phase_angle_2,14,3,2_ + 5.007511266900351 node_voltage_phase_angle_2,25,3,2_ <= 5
c1838: 5 int_line_decision_var_2_7_ + 1 int_cand_flow_2_7,3,2_ + 5.007511266900351 node_voltage_phase_angle_2,14,3,2_ - 5.007511266900351 node_voltage_phase_angle_2,25,3,2_ <= 5
c1839: -1.06 int_line_decision_var_2_7_ + 1 int_cand_flow_2_7,3,2_ <= 0
c1840: -1.06 int_line_decision_var_2_7_ - 1 int_cand_flow_2_7,3,2_ <= 0
c1841: 5 int_line_decision_var_2_7_ - 1 int_cand_flow_2_7,4,2_ - 5.007511266900351 node_voltage_phase_angle_2,14,4,2_ + 5.007511266900351 node_voltage_phase_angle_2,25,4,2_ <= 5
c1842: 5 int_line_decision_var_2_7_ + 1 int_cand_flow_2_7,4,2_ + 5.007511266900351 node_voltage_phase_angle_2,14,4,2_ - 5.007511266900351 node_voltage_phase_angle_2,25,4,2_ <= 5
c1843: -1.06 int_line_decision_var_2_7_ + 1 int_cand_flow_2_7,4,2_ <= 0
c1844: -1.06 int_line_decision_var_2_7_ - 1 int_cand_flow_2_7,4,2_ <= 0
c1845: 5 int_line_decision_var_2_8_ - 1 int_cand_flow_2_8,1,1_ - 4.576659038901602 node_voltage_phase_angle_2,15,1,1_ + 4.576659038901602 node_voltage_phase_angle_2,22,1,1_ <= 5
c1846: 5 int_line_decision_var_2_8_ + 1 int_cand_flow_2_8,1,1_ + 4.576659038901602 node_voltage_phase_angle_2,15,1,1_ - 4.576659038901602 node_voltage_phase_angle_2,22,1,1_ <= 5
c1847: -1.07 int_line_decision_var_2_8_ + 1 int_cand_flow_2_8,1,1_ <= 0
c1848: -1.07 int_line_decision_var_2_8_ - 1 int_cand_flow_2_8,1,1_ <= 0
c1849: 5 int_line_decision_var_2_8_ - 1 int_cand_flow_2_8,2,1_ - 4.576659038901602 node_voltage_phase_angle_2,15,2,1_ + 4.576659038901602 node_voltage_phase_angle_2,22,2,1_ <= 5
c1850: 5 int_line_decision_var_2_8_ + 1 int_cand_flow_2_8,2,1_ + 4.576659038901602 node_voltage_phase_angle_2,15,2,1_ - 4.576659038901602 node_voltage_phase_angle_2,22,2,1_ <= 5
c1851: -1.07 int_line_decision_var_2_8_ + 1 int_cand_flow_2_8,2,1_ <= 0
c1852: -1.07 int_line_decision_var_2_8_ - 1 int_cand_flow_2_8,2,1_ <= 0
c1853: 5 int_line_decision_var_2_8_ - 1 int_cand_flow_2_8,3,1_ - 4.576659038901602 node_voltage_phase_angle_2,15,3,1_ + 4.576659038901602 node_voltage_phase_angle_2,22,3,1_ <= 5
c1854: 5 int_line_decision_var_2_8_ + 1 int_cand_flow_2_8,3,1_ + 4.576659038901602 node_voltage_phase_angle_2,15,3,1_ - 4.576659038901602 node_voltage_phase_angle_2,22,3,1_ <= 5
c1855: -1.07 int_line_decision_var_2_8_ + 1 int_cand_flow_2_8,3,1_ <= 0
c1856: -1.07 int_line_decision_var_2_8_ - 1 int_cand_flow_2_8,3,1_ <= 0
c1857: 5 int_line_decision_var_2_8_ - 1 int_cand_flow_2_8,4,1_ - 4.576659038901602 node_voltage_phase_angle_2,15,4,1_ + 4.576659038901602 node_voltage_phase_angle_2,22,4,1_ <= 5
c1858: 5 int_line_decision_var_2_8_ + 1 int_cand_flow_2_8,4,1_ + 4.576659038901602 node_voltage_phase_angle_2,15,4,1_ - 4.576659038901602 node_voltage_phase_angle_2,22,4,1_ <= 5
c1859: -1.07 int_line_decision_var_2_8_ + 1 int_cand_flow_2_8,4,1_ <= 0
c1860: -1.07 int_line_decision_var_2_8_ - 1 int_cand_flow_2_8,4,1_ <= 0
c1861: 5 int_line_decision_var_2_8_ - 1 int_cand_flow_2_8,1,2_ - 4.576659038901602 node_voltage_phase_angle_2,15,1,2_ + 4.576659038901602 node_voltage_phase_angle_2,22,1,2_ <= 5
c1862: 5 int_line_decision_var_2_8_ + 1 int_cand_flow_2_8,1,2_ + 4.576659038901602 node_voltage_phase_angle_2,15,1,2_ - 4.576659038901602 node_voltage_phase_angle_2,22,1,2_ <= 5
c1863: -1.07 int_line_decision_var_2_8_ + 1 int_cand_flow_2_8,1,2_ <= 0
c1864: -1.07 int_line_decision_var_2_8_ - 1 int_cand_flow_2_8,1,2_ <= 0
c1865: 5 int_line_decision_var_2_8_ - 1 int_cand_flow_2_8,2,2_ - 4.576659038901602 node_voltage_phase_angle_2,15,2,2_ + 4.576659038901602 node_voltage_phase_angle_2,22,2,2_ <= 5
c1866: 5 int_line_decision_var_2_8_ + 1 int_cand_flow_2_8,2,2_ + 4.576659038901602 node_voltage_phase_angle_2,15,2,2_ - 4.576659038901602 node_voltage_phase_angle_2,22,2,2_ <= 5
c1867: -1.07 int_line_decision_var_2_8_ + 1 int_cand_flow_2_8,2,2_ <= 0
c1868: -1.07 int_line_decision_var_2_8_ - 1 int_cand_flow_2_8,2,2_ <= 0
c1869: 5 int_line_decision_var_2_8_ - 1 int_cand_flow_2_8,3,2_ - 4.576659038901602 node_voltage_phase_angle_2,15,3,2_ + 4.576659038901602 node_voltage_phase_angle_2,22,3,2_ <= 5
c1870: 5 int_line_decision_var_2_8_ + 1 int_cand_flow_2_8,3,2_ + 4.576659038901602 node_voltage_phase_angle_2,15,3,2_ - 4.576659038901602 node_voltage_phase_angle_2,22,3,2_ <= 5
c1871: -1.07 int_line_decision_var_2_8_ + 1 int_cand_flow_2_8,3,2_ <= 0
c1872: -1.07 int_line_decision_var_2_8_ - 1 int_cand_flow_2_8,3,2_ <= 0
c1873: 5 int_line_decision_var_2_8_ - 1 int_cand_flow_2_8,4,2_ - 4.576659038901602 node_voltage_phase_angle_2,15,4,2_ + 4.576659038901602 node_voltage_phase_angle_2,22,4,2_ <= 5
c1874: 5 int_line_decision_var_2_8_ + 1 int_cand_flow_2_8,4,2_ + 4.576659038901602 node_voltage_phase_angle_2,15,4,2_ - 4.576659038901602 node_voltage_phase_angle_2,22,4,2_ <= 5
c1875: -1.07 int_line_decision_var_2_8_ + 1 int_cand_flow_2_8,4,2_ <= 0
c1876: -1.07 int_line_decision_var_2_8_ - 1 int_cand_flow_2_8,4,2_ <= 0
c1877: 5 int_line_decision_var_2_9_ - 1 int_cand_flow_2_9,1,1_ - 4.9504950495049505 node_voltage_phase_angle_2,12,1,1_ + 4.9504950495049505 node_voltage_phase_angle_2,13,1,1_ <= 5
c1878: 5 int_line_decision_var_2_9_ + 1 int_cand_flow_2_9,1,1_ + 4.9504950495049505 node_voltage_phase_angle_2,12,1,1_ - 4.9504950495049505 node_voltage_phase_angle_2,13,1,1_ <= 5
c1879: -1.08 int_line_decision_var_2_9_ + 1 int_cand_flow_2_9,1,1_ <= 0
c1880: -1.08 int_line_decision_var_2_9_ - 1 int_cand_flow_2_9,1,1_ <= 0
c1881: 5 int_line_decision_var_2_9_ - 1 int_cand_flow_2_9,2,1_ - 4.9504950495049505 node_voltage_phase_angle_2,12,2,1_ + 4.9504950495049505 node_voltage_phase_angle_2,13,2,1_ <= 5
c1882: 5 int_line_decision_var_2_9_ + 1 int_cand_flow_2_9,2,1_ + 4.9504950495049505 node_voltage_phase_angle_2,12,2,1_ - 4.9504950495049505 node_voltage_phase_angle_2,13,2,1_ <= 5
c1883: -1.08 int_line_decision_var_2_9_ + 1 int_cand_flow_2_9,2,1_ <= 0
c1884: -1.08 int_line_decision_var_2_9_ - 1 int_cand_flow_2_9,2,1_ <= 0
c1885: 5 int_line_decision_var_2_9_ - 1 int_cand_flow_2_9,3,1_ - 4.9504950495049505 node_voltage_phase_angle_2,12,3,1_ + 4.9504950495049505 node_voltage_phase_angle_2,13,3,1_ <= 5
c1886: 5 int_line_decision_var_2_9_ + 1 int_cand_flow_2_9,3,1_ + 4.9504950495049505 node_voltage_phase_angle_2,12,3,1_ - 4.9504950495049505 node_voltage_phase_angle_2,13,3,1_ <= 5
c1887: -1.08 int_line_decision_var_2_9_ + 1 int_cand_flow_2_9,3,1_ <= 0
c1888: -1.08 int_line_decision_var_2_9_ - 1 int_cand_flow_2_9,3,1_ <= 0
c1889: 5 int_line_decision_var_2_9_ - 1 int_cand_flow_2_9,4,1_ - 4.9504950495049505 node_voltage_phase_angle_2,12,4,1_ + 4.9504950495049505 node_voltage_phase_angle_2,13,4,1_ <= 5
c1890: 5 int_line_decision_var_2_9_ + 1 int_cand_flow_2_9,4,1_ + 4.9504950495049505 node_voltage_phase_angle_2,12,4,1_ - 4.9504950495049505 node_voltage_phase_angle_2,13,4,1_ <= 5
c1891: -1.08 int_line_decision_var_2_9_ + 1 int_cand_flow_2_9,4,1_ <= 0
c1892: -1.08 int_line_decision_var_2_9_ - 1 int_cand_flow_2_9,4,1_ <= 0
c1893: 5 int_line_decision_var_2_9_ - 1 int_cand_flow_2_9,1,2_ - 4.9504950495049505 node_voltage_phase_angle_2,12,1,2_ + 4.9504950495049505 node_voltage_phase_angle_2,13,1,2_ <= 5
c1894: 5 int_line_decision_var_2_9_ + 1 int_cand_flow_2_9,1,2_ + 4.9504950495049505 node_voltage_phase_angle_2,12,1,2_ - 4.9504950495049505 node_voltage_phase_angle_2,13,1,2_ <= 5
c1895: -1.08 int_line_decision_var_2_9_ + 1 int_cand_flow_2_9,1,2_ <= 0
c1896: -1.08 int_line_decision_var_2_9_ - 1 int_cand_flow_2_9,1,2_ <= 0
c1897: 5 int_line_decision_var_2_9_ - 1 int_cand_flow_2_9,2,2_ - 4.9504950495049505 node_voltage_phase_angle_2,12,2,2_ + 4.9504950495049505 node_voltage_phase_angle_2,13,2,2_ <= 5
c1898: 5 int_line_decision_var_2_9_ + 1 int_cand_flow_2_9,2,2_ + 4.9504950495049505 node_voltage_phase_angle_2,12,2,2_ - 4.9504950495049505 node_voltage_phase_angle_2,13,2,2_ <= 5
c1899: -1.08 int_line_decision_var_2_9_ + 1 int_cand_flow_2_9,2,2_ <= 0
c1900: -1.08 int_line_decision_var_2_9_ - 1 int_cand_flow_2_9,2,2_ <= 0
c1901: 5 int_line_decision_var_2_9_ - 1 int_cand_flow_2_9,3,2_ - 4.9504950495049505 node_voltage_phase_angle_2,12,3,2_ + 4.9504950495049505 node_voltage_phase_angle_2,13,3,2_ <= 5
c1902: 5 int_line_decision_var_2_9_ + 1 int_cand_flow_2_9,3,2_ + 4.9504950495049505 node_voltage_phase_angle_2,12,3,2_ - 4.9504950495049505 node_voltage_phase_angle_2,13,3,2_ <= 5
c1903: -1.08 int_line_decision_var_2_9_ + 1 int_cand_flow_2_9,3,2_ <= 0
c1904: -1.08 int_line_decision_var_2_9_ - 1 int_cand_flow_2_9,3,2_ <= 0
c1905: 5 int_line_decision_var_2_9_ - 1 int_cand_flow_2_9,4,2_ - 4.9504950495049505 node_voltage_phase_angle_2,12,4,2_ + 4.9504950495049505 node_voltage_phase_angle_2,13,4,2_ <= 5
c1906: 5 int_line_decision_var_2_9_ + 1 int_cand_flow_2_9,4,2_ + 4.9504950495049505 node_voltage_phase_angle_2,12,4,2_ - 4.9504950495049505 node_voltage_phase_angle_2,13,4,2_ <= 5
c1907: -1.08 int_line_decision_var_2_9_ + 1 int_cand_flow_2_9,4,2_ <= 0
c1908: -1.08 int_line_decision_var_2_9_ - 1 int_cand_flow_2_9,4,2_ <= 0
c1909: 5 int_line_decision_var_2_10_ - 1 int_cand_flow_2_10,1,1_ - 5.200208008320333 node_voltage_phase_angle_2,2,1,1_ + 5.200208008320333 node_voltage_phase_angle_2,25,1,1_ <= 5
c1910: 5 int_line_decision_var_2_10_ + 1 int_cand_flow_2_10,1,1_ + 5.200208008320333 node_voltage_phase_angle_2,2,1,1_ - 5.200208008320333 node_voltage_phase_angle_2,25,1,1_ <= 5
c1911: -1.09 int_line_decision_var_2_10_ + 1 int_cand_flow_2_10,1,1_ <= 0
c1912: -1.09 int_line_decision_var_2_10_ - 1 int_cand_flow_2_10,1,1_ <= 0
c1913: 5 int_line_decision_var_2_10_ - 1 int_cand_flow_2_10,2,1_ - 5.200208008320333 node_voltage_phase_angle_2,2,2,1_ + 5.200208008320333 node_voltage_phase_angle_2,25,2,1_ <= 5
c1914: 5 int_line_decision_var_2_10_ + 1 int_cand_flow_2_10,2,1_ + 5.200208008320333 node_voltage_phase_angle_2,2,2,1_ - 5.200208008320333 node_voltage_phase_angle_2,25,2,1_ <= 5
c1915: -1.09 int_line_decision_var_2_10_ + 1 int_cand_flow_2_10,2,1_ <= 0
c1916: -1.09 int_line_decision_var_2_10_ - 1 int_cand_flow_2_10,2,1_ <= 0
c1917: 5 int_line_decision_var_2_10_ - 1 int_cand_flow_2_10,3,1_ - 5.200208008320333 node_voltage_phase_angle_2,2,3,1_ + 5.200208008320333 node_voltage_phase_angle_2,25,3,1_ <= 5
c1918: 5 int_line_decision_var_2_10_ + 1 int_cand_flow_2_10,3,1_ + 5.200208008320333 node_voltage_phase_angle_2,2,3,1_ - 5.200208008320333 node_voltage_phase_angle_2,25,3,1_ <= 5
c1919: -1.09 int_line_decision_var_2_10_ + 1 int_cand_flow_2_10,3,1_ <= 0
c1920: -1.09 int_line_decision_var_2_10_ - 1 int_cand_flow_2_10,3,1_ <= 0
c1921: 5 int_line_decision_var_2_10_ - 1 int_cand_flow_2_10,4,1_ - 5.200208008320333 node_voltage_phase_angle_2,2,4,1_ + 5.200208008320333 node_voltage_phase_angle_2,25,4,1_ <= 5
c1922: 5 int_line_decision_var_2_10_ + 1 int_cand_flow_2_10,4,1_ + 5.200208008320333 node_voltage_phase_angle_2,2,4,1_ - 5.200208008320333 node_voltage_phase_angle_2,25,4,1_ <= 5
c1923: -1.09 int_line_decision_var_2_10_ + 1 int_cand_flow_2_10,4,1_ <= 0
c1924: -1.09 int_line_decision_var_2_10_ - 1 int_cand_flow_2_10,4,1_ <= 0
c1925: 5 int_line_decision_var_2_10_ - 1 int_cand_flow_2_10,1,2_ - 5.200208008320333 node_voltage_phase_angle_2,2,1,2_ + 5.200208008320333 node_voltage_phase_angle_2,25,1,2_ <= 5
c1926: 5 int_line_decision_var_2_10_ + 1 int_cand_flow_2_10,1,2_ + 5.200208008320333 node_voltage_phase_angle_2,2,1,2_ - 5.200208008320333 node_voltage_phase_angle_2,25,1,2_ <= 5
c1927: -1.09 int_line_decision_var_2_10_ + 1 int_cand_flow_2_10,1,2_ <= 0
c1928: -1.09 int_line_decision_var_2_10_ - 1 int_cand_flow_2_10,1,2_ <= 0
c1929: 5 int_line_decision_var_2_10_ - 1 int_cand_flow_2_10,2,2_ - 5.200208008320333 node_voltage_phase_angle_2,2,2,2_ + 5.200208008320333 node_voltage_phase_angle_2,25,2,2_ <= 5
c1930: 5 int_line_decision_var_2_10_ + 1 int_cand_flow_2_10,2,2_ + 5.200208008320333 node_voltage_phase_angle_2,2,2,2_ - 5.200208008320333 node_voltage_phase_angle_2,25,2,2_ <= 5
c1931: -1.09 int_line_decision_var_2_10_ + 1 int_cand_flow_2_10,2,2_ <= 0
c1932: -1.09 int_line_decision_var_2_10_ - 1 int_cand_flow_2_10,2,2_ <= 0
c1933: 5 int_line_decision_var_2_10_ - 1 int_cand_flow_2_10,3,2_ - 5.200208008320333 node_voltage_phase_angle_2,2,3,2_ + 5.200208008320333 node_voltage_phase_angle_2,25,3,2_ <= 5
c1934: 5 int_line_decision_var_2_10_ + 1 int_cand_flow_2_10,3,2_ + 5.200208008320333 node_voltage_phase_angle_2,2,3,2_ - 5.200208008320333 node_voltage_phase_angle_2,25,3,2_ <= 5
c1935: -1.09 int_line_decision_var_2_10_ + 1 int_cand_flow_2_10,3,2_ <= 0
c1936: -1.09 int_line_decision_var_2_10_ - 1 int_cand_flow_2_10,3,2_ <= 0
c1937: 5 int_line_decision_var_2_10_ - 1 int_cand_flow_2_10,4,2_ - 5.200208008320333 node_voltage_phase_angle_2,2,4,2_ + 5.200208008320333 node_voltage_phase_angle_2,25,4,2_ <= 5
c1938: 5 int_line_decision_var_2_10_ + 1 int_cand_flow_2_10,4,2_ + 5.200208008320333 node_voltage_phase_angle_2,2,4,2_ - 5.200208008320333 node_voltage_phase_angle_2,25,4,2_ <= 5
c1939: -1.09 int_line_decision_var_2_10_ + 1 int_cand_flow_2_10,4,2_ <= 0
c1940: -1.09 int_line_decision_var_2_10_ - 1 int_cand_flow_2_10,4,2_ <= 0
c1941: 5 int_line_decision_var_2_11_ - 1 int_cand_flow_2_11,1,1_ - 7.739938080495356 node_voltage_phase_angle_2,17,1,1_ + 7.739938080495356 node_voltage_phase_angle_2,20,1,1_ <= 5
c1942: 5 int_line_decision_var_2_11_ + 1 int_cand_flow_2_11,1,1_ + 7.739938080495356 node_voltage_phase_angle_2,17,1,1_ - 7.739938080495356 node_voltage_phase_angle_2,20,1,1_ <= 5
c1943: -1.1 int_line_decision_var_2_11_ + 1 int_cand_flow_2_11,1,1_ <= 0
c1944: -1.1 int_line_decision_var_2_11_ - 1 int_cand_flow_2_11,1,1_ <= 0
c1945: 5 int_line_decision_var_2_11_ - 1 int_cand_flow_2_11,2,1_ - 7.739938080495356 node_voltage_phase_angle_2,17,2,1_ + 7.739938080495356 node_voltage_phase_angle_2,20,2,1_ <= 5
c1946: 5 int_line_decision_var_2_11_ + 1 int_cand_flow_2_11,2,1_ + 7.739938080495356 node_voltage_phase_angle_2,17,2,1_ - 7.739938080495356 node_voltage_phase_angle_2,20,2,1_ <= 5
c1947: -1.1 int_line_decision_var_2_11_ + 1 int_cand_flow_2_11,2,1_ <= 0
c1948: -1.1 int_line_decision_var_2_11_ - 1 int_cand_flow_2_11,2,1_ <= 0
c1949: 5 int_line_decision_var_2_11_ - 1 int_cand_flow_2_11,3,1_ - 7.739938080495356 node_voltage_phase_angle_2,17,3,1_ + 7.739938080495356 node_voltage_phase_angle_2,20,3,1_ <= 5
c1950: 5 int_line_decision_var_2_11_ + 1 int_cand_flow_2_11,3,1_ + 7.739938080495356 node_voltage_phase_angle_2,17,3,1_ - 7.739938080495356 node_voltage_phase_angle_2,20,3,1_ <= 5
c1951: -1.1 int_line_decision_var_2_11_ + 1 int_cand_flow_2_11,3,1_ <= 0
c1952: -1.1 int_line_decision_var_2_11_ - 1 int_cand_flow_2_11,3,1_ <= 0
c1953: 5 int_line_decision_var_2_11_ - 1 int_cand_flow_2_11,4,1_ - 7.739938080495356 node_voltage_phase_angle_2,17,4,1_ + 7.739938080495356 node_voltage_phase_angle_2,20,4,1_ <= 5
c1954: 5 int_line_decision_var_2_11_ + 1 int_cand_flow_2_11,4,1_ + 7.739938080495356 node_voltage_phase_angle_2,17,4,1_ - 7.739938080495356 node_voltage_phase_angle_2,20,4,1_ <= 5
c1955: -1.1 int_line_decision_var_2_11_ + 1 int_cand_flow_2_11,4,1_ <= 0
c1956: -1.1 int_line_decision_var_2_11_ - 1 int_cand_flow_2_11,4,1_ <= 0
c1957: 5 int_line_decision_var_2_11_ - 1 int_cand_flow_2_11,1,2_ - 7.739938080495356 node_voltage_phase_angle_2,17,1,2_ + 7.739938080495356 node_voltage_phase_angle_2,20,1,2_ <= 5
c1958: 5 int_line_decision_var_2_11_ + 1 int_cand_flow_2_11,1,2_ + 7.739938080495356 node_voltage_phase_angle_2,17,1,2_ - 7.739938080495356 node_voltage_phase_angle_2,20,1,2_ <= 5
c1959: -1.1 int_line_decision_var_2_11_ + 1 int_cand_flow_2_11,1,2_ <= 0
c1960: -1.1 int_line_decision_var_2_11_ - 1 int_cand_flow_2_11,1,2_ <= 0
c1961: 5 int_line_decision_var_2_11_ - 1 int_cand_flow_2_11,2,2_ - 7.739938080495356 node_voltage_phase_angle_2,17,2,2_ + 7.739938080495356 node_voltage_phase_angle_2,20,2,2_ <= 5
c1962: 5 int_line_decision_var_2_11_ + 1 int_cand_flow_2_11,2,2_ + 7.739938080495356 node_voltage_phase_angle_2,17,2,2_ - 7.739938080495356 node_voltage_phase_angle_2,20,2,2_ <= 5
c1963: -1.1 int_line_decision_var_2_11_ + 1 int_cand_flow_2_11,2,2_ <= 0
c1964: -1.1 int_line_decision_var_2_11_ - 1 int_cand_flow_2_11,2,2_ <= 0
c1965: 5 int_line_decision_var_2_11_ - 1 int_cand_flow_2_11,3,2_ - 7.739938080495356 node_voltage_phase_angle_2,17,3,2_ + 7.739938080495356 node_voltage_phase_angle_2,20,3,2_ <= 5
c1966: 5 int_line_decision_var_2_11_ + 1 int_cand_flow_2_11,3,2_ + 7.739938080495356 node_voltage_phase_angle_2,17,3,2_ - 7.739938080495356 node_voltage_phase_angle_2,20,3,2_ <= 5
c1967: -1.1 int_line_decision_var_2_11_ + 1 int_cand_flow_2_11,3,2_ <= 0
c1968: -1.1 int_line_decision_var_2_11_ - 1 int_cand_flow_2_11,3,2_ <= 0
c1969: 5 int_line_decision_var_2_11_ - 1 int_cand_flow_2_11,4,2_ - 7.739938080495356 node_voltage_phase_angle_2,17,4,2_ + 7.739938080495356 node_voltage_phase_angle_2,20,4,2_ <= 5
c1970: 5 int_line_decision_var_2_11_ + 1 int_cand_flow_2_11,4,2_ + 7.739938080495356 node_voltage_phase_angle_2,17,4,2_ - 7.739938080495356 node_voltage_phase_angle_2,20,4,2_ <= 5
c1971: -1.1 int_line_decision_var_2_11_ + 1 int_cand_flow_2_11,4,2_ <= 0
c1972: -1.1 int_line_decision_var_2_11_ - 1 int_cand_flow_2_11,4,2_ <= 0
c1973: 5 int_line_decision_var_2_12_ - 1 int_cand_flow_2_12,1,1_ - 14.705882352941176 node_voltage_phase_angle_2,16,1,1_ + 14.705882352941176 node_voltage_phase_angle_2,29,1,1_ <= 5
c1974: 5 int_line_decision_var_2_12_ + 1 int_cand_flow_2_12,1,1_ + 14.705882352941176 node_voltage_phase_angle_2,16,1,1_ - 14.705882352941176 node_voltage_phase_angle_2,29,1,1_ <= 5
c1975: -1.11 int_line_decision_var_2_12_ + 1 int_cand_flow_2_12,1,1_ <= 0
c1976: -1.11 int_line_decision_var_2_12_ - 1 int_cand_flow_2_12,1,1_ <= 0
c1977: 5 int_line_decision_var_2_12_ - 1 int_cand_flow_2_12,2,1_ - 14.705882352941176 node_voltage_phase_angle_2,16,2,1_ + 14.705882352941176 node_voltage_phase_angle_2,29,2,1_ <= 5
c1978: 5 int_line_decision_var_2_12_ + 1 int_cand_flow_2_12,2,1_ + 14.705882352941176 node_voltage_phase_angle_2,16,2,1_ - 14.705882352941176 node_voltage_phase_angle_2,29,2,1_ <= 5
c1979: -1.11 int_line_decision_var_2_12_ + 1 int_cand_flow_2_12,2,1_ <= 0
c1980: -1.11 int_line_decision_var_2_12_ - 1 int_cand_flow_2_12,2,1_ <= 0
c1981: 5 int_line_decision_var_2_12_ - 1 int_cand_flow_2_12,3,1_ - 14.705882352941176 node_voltage_phase_angle_2,16,3,1_ + 14.705882352941176 node_voltage_phase_angle_2,29,3,1_ <= 5
c1982: 5 int_line_decision_var_2_12_ + 1 int_cand_flow_2_12,3,1_ + 14.705882352941176 node_voltage_phase_angle_2,16,3,1_ - 14.705882352941176 node_voltage_phase_angle_2,29,3,1_ <= 5
c1983: -1.11 int_line_decision_var_2_12_ + 1 int_cand_flow_2_12,3,1_ <= 0
c1984: -1.11 int_line_decision_var_2_12_ - 1 int_cand_flow_2_12,3,1_ <= 0
c1985: 5 int_line_decision_var_2_12_ - 1 int_cand_flow_2_12,4,1_ - 14.705882352941176 node_voltage_phase_angle_2,16,4,1_ + 14.705882352941176 node_voltage_phase_angle_2,29,4,1_ <= 5
c1986: 5 int_line_decision_var_2_12_ + 1 int_cand_flow_2_12,4,1_ + 14.705882352941176 node_voltage_phase_angle_2,16,4,1_ - 14.705882352941176 node_voltage_phase_angle_2,29,4,1_ <= 5
c1987: -1.11 int_line_decision_var_2_12_ + 1 int_cand_flow_2_12,4,1_ <= 0
c1988: -1.11 int_line_decision_var_2_12_ - 1 int_cand_flow_2_12,4,1_ <= 0
c1989: 5 int_line_decision_var_2_12_ - 1 int_cand_flow_2_12,1,2_ - 14.705882352941176 node_voltage_phase_angle_2,16,1,2_ + 14.705882352941176 node_voltage_phase_angle_2,29,1,2_ <= 5
c1990: 5 int_line_decision_var_2_12_ + 1 int_cand_flow_2_12,1,2_ + 14.705882352941176 node_voltage_phase_angle_2,16,1,2_ - 14.705882352941176 node_voltage_phase_angle_2,29,1,2_ <= 5
c1991: -1.11 int_line_decision_var_2_12_ + 1 int_cand_flow_2_12,1,2_ <= 0
c1992: -1.11 int_line_decision_var_2_12_ - 1 int_cand_flow_2_12,1,2_ <= 0
c1993: 5 int_line_decision_var_2_12_ - 1 int_cand_flow_2_12,2,2_ - 14.705882352941176 node_voltage_phase_angle_2,16,2,2_ + 14.705882352941176 node_voltage_phase_angle_2,29,2,2_ <= 5
c1994: 5 int_line_decision_var_2_12_ + 1 int_cand_flow_2_12,2,2_ + 14.705882352941176 node_voltage_phase_angle_2,16,2,2_ - 14.705882352941176 node_voltage_phase_angle_2,29,2,2_ <= 5
c1995: -1.11 int_line_decision_var_2_12_ + 1 int_cand_flow_2_12,2,2_ <= 0
c1996: -1.11 int_line_decision_var_2_12_ - 1 int_cand_flow_2_12,2,2_ <= 0
c1997: 5 int_line_decision_var_2_12_ - 1 int_cand_flow_2_12,3,2_ - 14.705882352941176 node_voltage_phase_angle_2,16,3,2_ + 14.705882352941176 node_voltage_phase_angle_2,29,3,2_ <= 5
c1998: 5 int_line_decision_var_2_12_ + 1 int_cand_flow_2_12,3,2_ + 14.705882352941176 node_voltage_phase_angle_2,16,3,2_ - 14.705882352941176 node_voltage_phase_angle_2,29,3,2_ <= 5
c1999: -1.11 int_line_decision_var_2_12_ + 1 int_cand_flow_2_12,3,2_ <= 0
c2000: -1.11 int_line_decision_var_2_12_ - 1 int_cand_flow_2_12,3,2_ <= 0
c2001: 5 int_line_decision_var_2_12_ - 1 int_cand_flow_2_12,4,2_ - 14.705882352941176 node_voltage_phase_angle_2,16,4,2_ + 14.705882352941176 node_voltage_phase_angle_2,29,4,2_ <= 5
c2002: 5 int_line_decision_var_2_12_ + 1 int_cand_flow_2_12,4,2_ + 14.705882352941176 node_voltage_phase_angle_2,16,4,2_ - 14.705882352941176 node_voltage_phase_angle_2,29,4,2_ <= 5
c2003: -1.11 int_line_decision_var_2_12_ + 1 int_cand_flow_2_12,4,2_ <= 0
c2004: -1.11 int_line_decision_var_2_12_ - 1 int_cand_flow_2_12,4,2_ <= 0
c2005: 5 int_line_decision_var_2_13_ - 1 int_cand_flow_2_13,1,1_ + 5.58659217877095 node_voltage_phase_angle_2,1,1,1_ - 5.58659217877095 node_voltage_phase_angle_2,4,1,1_ <= 5
c2006: 5 int_line_decision_var_2_13_ + 1 int_cand_flow_2_13,1,1_ - 5.58659217877095 node_voltage_phase_angle_2,1,1,1_ + 5.58659217877095 node_voltage_phase_angle_2,4,1,1_ <= 5
c2007: -1.13 int_line_decision_var_2_13_ + 1 int_cand_flow_2_13,1,1_ <= 0
c2008: -1.13 int_line_decision_var_2_13_ - 1 int_cand_flow_2_13,1,1_ <= 0
c2009: 5 int_line_decision_var_2_13_ - 1 int_cand_flow_2_13,2,1_ + 5.58659217877095 node_voltage_phase_angle_2,1,2,1_ - 5.58659217877095 node_voltage_phase_angle_2,4,2,1_ <= 5
c2010: 5 int_line_decision_var_2_13_ + 1 int_cand_flow_2_13,2,1_ - 5.58659217877095 node_voltage_phase_angle_2,1,2,1_ + 5.58659217877095 node_voltage_phase_angle_2,4,2,1_ <= 5
c2011: -1.13 int_line_decision_var_2_13_ + 1 int_cand_flow_2_13,2,1_ <= 0
c2012: -1.13 int_line_decision_var_2_13_ - 1 int_cand_flow_2_13,2,1_ <= 0
c2013: 5 int_line_decision_var_2_13_ - 1 int_cand_flow_2_13,3,1_ + 5.58659217877095 node_voltage_phase_angle_2,1,3,1_ - 5.58659217877095 node_voltage_phase_angle_2,4,3,1_ <= 5
c2014: 5 int_line_decision_var_2_13_ + 1 int_cand_flow_2_13,3,1_ - 5.58659217877095 node_voltage_phase_angle_2,1,3,1_ + 5.58659217877095 node_voltage_phase_angle_2,4,3,1_ <= 5
c2015: -1.13 int_line_decision_var_2_13_ + 1 int_cand_flow_2_13,3,1_ <= 0
c2016: -1.13 int_line_decision_var_2_13_ - 1 int_cand_flow_2_13,3,1_ <= 0
c2017: 5 int_line_decision_var_2_13_ - 1 int_cand_flow_2_13,4,1_ + 5.58659217877095 node_voltage_phase_angle_2,1,4,1_ - 5.58659217877095 node_voltage_phase_angle_2,4,4,1_ <= 5
c2018: 5 int_line_decision_var_2_13_ + 1 int_cand_flow_2_13,4,1_ - 5.58659217877095 node_voltage_phase_angle_2,1,4,1_ + 5.58659217877095 node_voltage_phase_angle_2,4,4,1_ <= 5
c2019: -1.13 int_line_decision_var_2_13_ + 1 int_cand_flow_2_13,4,1_ <= 0
c2020: -1.13 int_line_decision_var_2_13_ - 1 int_cand_flow_2_13,4,1_ <= 0
c2021: 5 int_line_decision_var_2_13_ - 1 int_cand_flow_2_13,1,2_ + 5.58659217877095 node_voltage_phase_angle_2,1,1,2_ - 5.58659217877095 node_voltage_phase_angle_2,4,1,2_ <= 5
c2022: 5 int_line_decision_var_2_13_ + 1 int_cand_flow_2_13,1,2_ - 5.58659217877095 node_voltage_phase_angle_2,1,1,2_ + 5.58659217877095 node_voltage_phase_angle_2,4,1,2_ <= 5
c2023: -1.13 int_line_decision_var_2_13_ + 1 int_cand_flow_2_13,1,2_ <= 0
c2024: -1.13 int_line_decision_var_2_13_ - 1 int_cand_flow_2_13,1,2_ <= 0
c2025: 5 int_line_decision_var_2_13_ - 1 int_cand_flow_2_13,2,2_ + 5.58659217877095 node_voltage_phase_angle_2,1,2,2_ - 5.58659217877095 node_voltage_phase_angle_2,4,2,2_ <= 5
c2026: 5 int_line_decision_var_2_13_ + 1 int_cand_flow_2_13,2,2_ - 5.58659217877095 node_voltage_phase_angle_2,1,2,2_ + 5.58659217877095 node_voltage_phase_angle_2,4,2,2_ <= 5
c2027: -1.13 int_line_decision_var_2_13_ + 1 int_cand_flow_2_13,2,2_ <= 0
c2028: -1.13 int_line_decision_var_2_13_ - 1 int_cand_flow_2_13,2,2_ <= 0
c2029: 5 int_line_decision_var_2_13_ - 1 int_cand_flow_2_13,3,2_ + 5.58659217877095 node_voltage_phase_angle_2,1,3,2_ - 5.58659217877095 node_voltage_phase_angle_2,4,3,2_ <= 5
c2030: 5 int_line_decision_var_2_13_ + 1 int_cand_flow_2_13,3,2_ - 5.58659217877095 node_voltage_phase_angle_2,1,3,2_ + 5.58659217877095 node_voltage_phase_angle_2,4,3,2_ <= 5
c2031: -1.13 int_line_decision_var_2_13_ + 1 int_cand_flow_2_13,3,2_ <= 0
c2032: -1.13 int_line_decision_var_2_13_ - 1 int_cand_flow_2_13,3,2_ <= 0
c2033: 5 int_line_decision_var_2_13_ - 1 int_cand_flow_2_13,4,2_ + 5.58659217877095 node_voltage_phase_angle_2,1,4,2_ - 5.58659217877095 node_voltage_phase_angle_2,4,4,2_ <= 5
c2034: 5 int_line_decision_var_2_13_ + 1 int_cand_flow_2_13,4,2_ - 5.58659217877095 node_voltage_phase_angle_2,1,4,2_ + 5.58659217877095 node_voltage_phase_angle_2,4,4,2_ <= 5
c2035: -1.13 int_line_decision_var_2_13_ + 1 int_cand_flow_2_13,4,2_ <= 0
c2036: -1.13 int_line_decision_var_2_13_ - 1 int_cand_flow_2_13,4,2_ <= 0
c2037: 5 int_line_decision_var_2_14_ - 1 int_cand_flow_2_14,1,1_ + 3.7037037037037033 node_voltage_phase_angle_2,19,1,1_ - 3.7037037037037033 node_voltage_phase_angle_2,20,1,1_ <= 5
c2038: 5 int_line_decision_var_2_14_ + 1 int_cand_flow_2_14,1,1_ - 3.7037037037037033 node_voltage_phase_angle_2,19,1,1_ + 3.7037037037037033 node_voltage_phase_angle_2,20,1,1_ <= 5
c2039: -1.14 int_line_decision_var_2_14_ + 1 int_cand_flow_2_14,1,1_ <= 0
c2040: -1.14 int_line_decision_var_2_14_ - 1 int_cand_flow_2_14,1,1_ <= 0
c2041: 5 int_line_decision_var_2_14_ - 1 int_cand_flow_2_14,2,1_ + 3.7037037037037033 node_voltage_phase_angle_2,19,2,1_ - 3.7037037037037033 node_voltage_phase_angle_2,20,2,1_ <= 5
c2042: 5 int_line_decision_var_2_14_ + 1 int_cand_flow_2_14,2,1_ - 3.7037037037037033 node_voltage_phase_angle_2,19,2,1_ + 3.7037037037037033 node_voltage_phase_angle_2,20,2,1_ <= 5
c2043: -1.14 int_line_decision_var_2_14_ + 1 int_cand_flow_2_14,2,1_ <= 0
c2044: -1.14 int_line_decision_var_2_14_ - 1 int_cand_flow_2_14,2,1_ <= 0
c2045: 5 int_line_decision_var_2_14_ - 1 int_cand_flow_2_14,3,1_ + 3.7037037037037033 node_voltage_phase_angle_2,19,3,1_ - 3.7037037037037033 node_voltage_phase_angle_2,20,3,1_ <= 5
c2046: 5 int_line_decision_var_2_14_ + 1 int_cand_flow_2_14,3,1_ - 3.7037037037037033 node_voltage_phase_angle_2,19,3,1_ + 3.7037037037037033 node_voltage_phase_angle_2,20,3,1_ <= 5
c2047: -1.14 int_line_decision_var_2_14_ + 1 int_cand_flow_2_14,3,1_ <= 0
c2048: -1.14 int_line_decision_var_2_14_ - 1 int_cand_flow_2_14,3,1_ <= 0
c2049: 5 int_line_decision_var_2_14_ - 1 int_cand_flow_2_14,4,1_ + 3.7037037037037033 node_voltage_phase_angle_2,19,4,1_ - 3.7037037037037033 node_voltage_phase_angle_2,20,4,1_ <= 5
c2050: 5 int_line_decision_var_2_14_ + 1 int_cand_flow_2_14,4,1_ - 3.7037037037037033 node_voltage_phase_angle_2,19,4,1_ + 3.7037037037037033 node_voltage_phase_angle_2,20,4,1_ <= 5
c2051: -1.14 int_line_decision_var_2_14_ + 1 int_cand_flow_2_14,4,1_ <= 0
c2052: -1.14 int_line_decision_var_2_14_ - 1 int_cand_flow_2_14,4,1_ <= 0
c2053: 5 int_line_decision_var_2_14_ - 1 int_cand_flow_2_14,1,2_ + 3.7037037037037033 node_voltage_phase_angle_2,19,1,2_ - 3.7037037037037033 node_voltage_phase_angle_2,20,1,2_ <= 5
c2054: 5 int_line_decision_var_2_14_ + 1 int_cand_flow_2_14,1,2_ - 3.7037037037037033 node_voltage_phase_angle_2,19,1,2_ + 3.7037037037037033 node_voltage_phase_angle_2,20,1,2_ <= 5
c2055: -1.14 int_line_decision_var_2_14_ + 1 int_cand_flow_2_14,1,2_ <= 0
c2056: -1.14 int_line_decision_var_2_14_ - 1 int_cand_flow_2_14,1,2_ <= 0
c2057: 5 int_line_decision_var_2_14_ - 1 int_cand_flow_2_14,2,2_ + 3.7037037037037033 node_voltage_phase_angle_2,19,2,2_ - 3.7037037037037033 node_voltage_phase_angle_2,20,2,2_ <= 5
c2058: 5 int_line_decision_var_2_14_ + 1 int_cand_flow_2_14,2,2_ - 3.7037037037037033 node_voltage_phase_angle_2,19,2,2_ + 3.7037037037037033 node_voltage_phase_angle_2,20,2,2_ <= 5
c2059: -1.14 int_line_decision_var_2_14_ + 1 int_cand_flow_2_14,2,2_ <= 0
c2060: -1.14 int_line_decision_var_2_14_ - 1 int_cand_flow_2_14,2,2_ <= 0
c2061: 5 int_line_decision_var_2_14_ - 1 int_cand_flow_2_14,3,2_ + 3.7037037037037033 node_voltage_phase_angle_2,19,3,2_ - 3.7037037037037033 node_voltage_phase_angle_2,20,3,2_ <= 5
c2062: 5 int_line_decision_var_2_14_ + 1 int_cand_flow_2_14,3,2_ - 3.7037037037037033 node_voltage_phase_angle_2,19,3,2_ + 3.7037037037037033 node_voltage_phase_angle_2,20,3,2_ <= 5
c2063: -1.14 int_line_decision_var_2_14_ + 1 int_cand_flow_2_14,3,2_ <= 0
c2064: -1.14 int_line_decision_var_2_14_ - 1 int_cand_flow_2_14,3,2_ <= 0
c2065: 5 int_line_decision_var_2_14_ - 1 int_cand_flow_2_14,4,2_ + 3.7037037037037033 node_voltage_phase_angle_2,19,4,2_ - 3.7037037037037033 node_voltage_phase_angle_2,20,4,2_ <= 5
c2066: 5 int_line_decision_var_2_14_ + 1 int_cand_flow_2_14,4,2_ - 3.7037037037037033 node_voltage_phase_angle_2,19,4,2_ + 3.7037037037037033 node_voltage_phase_angle_2,20,4,2_ <= 5
c2067: -1.14 int_line_decision_var_2_14_ + 1 int_cand_flow_2_14,4,2_ <= 0
c2068: -1.14 int_line_decision_var_2_14_ - 1 int_cand_flow_2_14,4,2_ <= 0
c2069: 5 int_line_decision_var_2_15_ - 1 int_cand_flow_2_15,1,1_ + 3.037667071688943 node_voltage_phase_angle_2,2,1,1_ - 3.037667071688943 node_voltage_phase_angle_2,4,1,1_ <= 5
c2070: 5 int_line_decision_var_2_15_ + 1 int_cand_flow_2_15,1,1_ - 3.037667071688943 node_voltage_phase_angle_2,2,1,1_ + 3.037667071688943 node_voltage_phase_angle_2,4,1,1_ <= 5
c2071: -1.15 int_line_decision_var_2_15_ + 1 int_cand_flow_2_15,1,1_ <= 0
c2072: -1.15 int_line_decision_var_2_15_ - 1 int_cand_flow_2_15,1,1_ <= 0
c2073: 5 int_line_decision_var_2_15_ - 1 int_cand_flow_2_15,2,1_ + 3.037667071688943 node_voltage_phase_angle_2,2,2,1_ - 3.037667071688943 node_voltage_phase_angle_2,4,2,1_ <= 5
c2074: 5 int_line_decision_var_2_15_ + 1 int_cand_flow_2_15,2,1_ - 3.037667071688943 node_voltage_phase_angle_2,2,2,1_ + 3.037667071688943 node_voltage_phase_angle_2,4,2,1_ <= 5
c2075: -1.15 int_line_decision_var_2_15_ + 1 int_cand_flow_2_15,2,1_ <= 0
c2076: -1.15 int_line_decision_var_2_15_ - 1 int_cand_flow_2_15,2,1_ <= 0
c2077: 5 int_line_decision_var_2_15_ - 1 int_cand_flow_2_15,3,1_ + 3.037667071688943 node_voltage_phase_angle_2,2,3,1_ - 3.037667071688943 node_voltage_phase_angle_2,4,3,1_ <= 5
c2078: 5 int_line_decision_var_2_15_ + 1 int_cand_flow_2_15,3,1_ - 3.037667071688943 node_voltage_phase_angle_2,2,3,1_ + 3.037667071688943 node_voltage_phase_angle_2,4,3,1_ <= 5
c2079: -1.15 int_line_decision_var_2_15_ + 1 int_cand_flow_2_15,3,1_ <= 0
c2080: -1.15 int_line_decision_var_2_15_ - 1 int_cand_flow_2_15,3,1_ <= 0
c2081: 5 int_line_decision_var_2_15_ - 1 int_cand_flow_2_15,4,1_ + 3.037667071688943 node_voltage_phase_angle_2,2,4,1_ - 3.037667071688943 node_voltage_phase_angle_2,4,4,1_ <= 5
c2082: 5 int_line_decision_var_2_15_ + 1 int_cand_flow_2_15,4,1_ - 3.037667071688943 node_voltage_phase_angle_2,2,4,1_ + 3.037667071688943 node_voltage_phase_angle_2,4,4,1_ <= 5
c2083: -1.15 int_line_decision_var_2_15_ + 1 int_cand_flow_2_15,4,1_ <= 0
c2084: -1.15 int_line_decision_var_2_15_ - 1 int_cand_flow_2_15,4,1_ <= 0
c2085: 5 int_line_decision_var_2_15_ - 1 int_cand_flow_2_15,1,2_ + 3.037667071688943 node_voltage_phase_angle_2,2,1,2_ - 3.037667071688943 node_voltage_phase_angle_2,4,1,2_ <= 5
c2086: 5 int_line_decision_var_2_15_ + 1 int_cand_flow_2_15,1,2_ - 3.037667071688943 node_voltage_phase_angle_2,2,1,2_ + 3.037667071688943 node_voltage_phase_angle_2,4,1,2_ <= 5
c2087: -1.15 int_line_decision_var_2_15_ + 1 int_cand_flow_2_15,1,2_ <= 0
c2088: -1.15 int_line_decision_var_2_15_ - 1 int_cand_flow_2_15,1,2_ <= 0
c2089: 5 int_line_decision_var_2_15_ - 1 int_cand_flow_2_15,2,2_ + 3.037667071688943 node_voltage_phase_angle_2,2,2,2_ - 3.037667071688943 node_voltage_phase_angle_2,4,2,2_ <= 5
c2090: 5 int_line_decision_var_2_15_ + 1 int_cand_flow_2_15,2,2_ - 3.037667071688943 node_voltage_phase_angle_2,2,2,2_ + 3.037667071688943 node_voltage_phase_angle_2,4,2,2_ <= 5
c2091: -1.15 int_line_decision_var_2_15_ + 1 int_cand_flow_2_15,2,2_ <= 0
c2092: -1.15 int_line_decision_var_2_15_ - 1 int_cand_flow_2_15,2,2_ <= 0
c2093: 5 int_line_decision_var_2_15_ - 1 int_cand_flow_2_15,3,2_ + 3.037667071688943 node_voltage_phase_angle_2,2,3,2_ - 3.037667071688943 node_voltage_phase_angle_2,4,3,2_ <= 5
c2094: 5 int_line_decision_var_2_15_ + 1 int_cand_flow_2_15,3,2_ - 3.037667071688943 node_voltage_phase_angle_2,2,3,2_ + 3.037667071688943 node_voltage_phase_angle_2,4,3,2_ <= 5
c2095: -1.15 int_line_decision_var_2_15_ + 1 int_cand_flow_2_15,3,2_ <= 0
c2096: -1.15 int_line_decision_var_2_15_ - 1 int_cand_flow_2_15,3,2_ <= 0
c2097: 5 int_line_decision_var_2_15_ - 1 int_cand_flow_2_15,4,2_ + 3.037667071688943 node_voltage_phase_angle_2,2,4,2_ - 3.037667071688943 node_voltage_phase_angle_2,4,4,2_ <= 5
c2098: 5 int_line_decision_var_2_15_ + 1 int_cand_flow_2_15,4,2_ - 3.037667071688943 node_voltage_phase_angle_2,2,4,2_ + 3.037667071688943 node_voltage_phase_angle_2,4,4,2_ <= 5
c2099: -1.15 int_line_decision_var_2_15_ + 1 int_cand_flow_2_15,4,2_ <= 0
c2100: -1.15 int_line_decision_var_2_15_ - 1 int_cand_flow_2_15,4,2_ <= 0
c2101: 5 int_line_decision_var_2_16_ - 1 int_cand_flow_2_16,1,1_ - 2.6315789473684212 node_voltage_phase_angle_2,11,1,1_ + 2.6315789473684212 node_voltage_phase_angle_2,20,1,1_ <= 5
c2102: 5 int_line_decision_var_2_16_ + 1 int_cand_flow_2_16,1,1_ + 2.6315789473684212 node_voltage_phase_angle_2,11,1,1_ - 2.6315789473684212 node_voltage_phase_angle_2,20,1,1_ <= 5
c2103: -1.16 int_line_decision_var_2_16_ + 1 int_cand_flow_2_16,1,1_ <= 0
c2104: -1.16 int_line_decision_var_2_16_ - 1 int_cand_flow_2_16,1,1_ <= 0
c2105: 5 int_line_decision_var_2_16_ - 1 int_cand_flow_2_16,2,1_ - 2.6315789473684212 node_voltage_phase_angle_2,11,2,1_ + 2.6315789473684212 node_voltage_phase_angle_2,20,2,1_ <= 5
c2106: 5 int_line_decision_var_2_16_ + 1 int_cand_flow_2_16,2,1_ + 2.6315789473684212 node_voltage_phase_angle_2,11,2,1_ - 2.6315789473684212 node_voltage_phase_angle_2,20,2,1_ <= 5
c2107: -1.16 int_line_decision_var_2_16_ + 1 int_cand_flow_2_16,2,1_ <= 0
c2108: -1.16 int_line_decision_var_2_16_ - 1 int_cand_flow_2_16,2,1_ <= 0
c2109: 5 int_line_decision_var_2_16_ - 1 int_cand_flow_2_16,3,1_ - 2.6315789473684212 node_voltage_phase_angle_2,11,3,1_ + 2.6315789473684212 node_voltage_phase_angle_2,20,3,1_ <= 5
c2110: 5 int_line_decision_var_2_16_ + 1 int_cand_flow_2_16,3,1_ + 2.6315789473684212 node_voltage_phase_angle_2,11,3,1_ - 2.6315789473684212 node_voltage_phase_angle_2,20,3,1_ <= 5
c2111: -1.16 int_line_decision_var_2_16_ + 1 int_cand_flow_2_16,3,1_ <= 0
c2112: -1.16 int_line_decision_var_2_16_ - 1 int_cand_flow_2_16,3,1_ <= 0
c2113: 5 int_line_decision_var_2_16_ - 1 int_cand_flow_2_16,4,1_ - 2.6315789473684212 node_voltage_phase_angle_2,11,4,1_ + 2.6315789473684212 node_voltage_phase_angle_2,20,4,1_ <= 5
c2114: 5 int_line_decision_var_2_16_ + 1 int_cand_flow_2_16,4,1_ + 2.6315789473684212 node_voltage_phase_angle_2,11,4,1_ - 2.6315789473684212 node_voltage_phase_angle_2,20,4,1_ <= 5
c2115: -1.16 int_line_decision_var_2_16_ + 1 int_cand_flow_2_16,4,1_ <= 0
c2116: -1.16 int_line_decision_var_2_16_ - 1 int_cand_flow_2_16,4,1_ <= 0
c2117: 5 int_line_decision_var_2_16_ - 1 int_cand_flow_2_16,1,2_ - 2.6315789473684212 node_voltage_phase_angle_2,11,1,2_ + 2.6315789473684212 node_voltage_phase_angle_2,20,1,2_ <= 5
c2118: 5 int_line_decision_var_2_16_ + 1 int_cand_flow_2_16,1,2_ + 2.6315789473684212 node_voltage_phase_angle_2,11,1,2_ - 2.6315789473684212 node_voltage_phase_angle_2,20,1,2_ <= 5
c2119: -1.16 int_line_decision_var_2_16_ + 1 int_cand_flow_2_16,1,2_ <= 0
c2120: -1.16 int_line_decision_var_2_16_ - 1 int_cand_flow_2_16,1,2_ <= 0
c2121: 5 int_line_decision_var_2_16_ - 1 int_cand_flow_2_16,2,2_ - 2.6315789473684212 node_voltage_phase_angle_2,11,2,2_ + 2.6315789473684212 node_voltage_phase_angle_2,20,2,2_ <= 5
c2122: 5 int_line_decision_var_2_16_ + 1 int_cand_flow_2_16,2,2_ + 2.6315789473684212 node_voltage_phase_angle_2,11,2,2_ - 2.6315789473684212 node_voltage_phase_angle_2,20,2,2_ <= 5
c2123: -1.16 int_line_decision_var_2_16_ + 1 int_cand_flow_2_16,2,2_ <= 0
c2124: -1.16 int_line_decision_var_2_16_ - 1 int_cand_flow_2_16,2,2_ <= 0
c2125: 5 int_line_decision_var_2_16_ - 1 int_cand_flow_2_16,3,2_ - 2.6315789473684212 node_voltage_phase_angle_2,11,3,2_ + 2.6315789473684212 node_voltage_phase_angle_2,20,3,2_ <= 5
c2126: 5 int_line_decision_var_2_16_ + 1 int_cand_flow_2_16,3,2_ + 2.6315789473684212 node_voltage_phase_angle_2,11,3,2_ - 2.6315789473684212 node_voltage_phase_angle_2,20,3,2_ <= 5
c2127: -1.16 int_line_decision_var_2_16_ + 1 int_cand_flow_2_16,3,2_ <= 0
c2128: -1.16 int_line_decision_var_2_16_ - 1 int_cand_flow_2_16,3,2_ <= 0
c2129: 5 int_line_decision_var_2_16_ - 1 int_cand_flow_2_16,4,2_ - 2.6315789473684212 node_voltage_phase_angle_2,11,4,2_ + 2.6315789473684212 node_voltage_phase_angle_2,20,4,2_ <= 5
c2130: 5 int_line_decision_var_2_16_ + 1 int_cand_flow_2_16,4,2_ + 2.6315789473684212 node_voltage_phase_angle_2,11,4,2_ - 2.6315789473684212 node_voltage_phase_angle_2,20,4,2_ <= 5
c2131: -1.16 int_line_decision_var_2_16_ + 1 int_cand_flow_2_16,4,2_ <= 0
c2132: -1.16 int_line_decision_var_2_16_ - 1 int_cand_flow_2_16,4,2_ <= 0
c2133: 5 int_line_decision_var_2_17_ - 1 int_cand_flow_2_17,1,1_ + 4.791566842357451 node_voltage_phase_angle_2,3,1,1_ - 4.791566842357451 node_voltage_phase_angle_2,12,1,1_ <= 5
c2134: 5 int_line_decision_var_2_17_ + 1 int_cand_flow_2_17,1,1_ - 4.791566842357451 node_voltage_phase_angle_2,3,1,1_ + 4.791566842357451 node_voltage_phase_angle_2,12,1,1_ <= 5
c2135: -1.17 int_line_decision_var_2_17_ + 1 int_cand_flow_2_17,1,1_ <= 0
c2136: -1.17 int_line_decision_var_2_17_ - 1 int_cand_flow_2_17,1,1_ <= 0
c2137: 5 int_line_decision_var_2_17_ - 1 int_cand_flow_2_17,2,1_ + 4.791566842357451 node_voltage_phase_angle_2,3,2,1_ - 4.791566842357451 node_voltage_phase_angle_2,12,2,1_ <= 5
c2138: 5 int_line_decision_var_2_17_ + 1 int_cand_flow_2_17,2,1_ - 4.791566842357451 node_voltage_phase_angle_2,3,2,1_ + 4.791566842357451 node_voltage_phase_angle_2,12,2,1_ <= 5
c2139: -1.17 int_line_decision_var_2_17_ + 1 int_cand_flow_2_17,2,1_ <= 0
c2140: -1.17 int_line_decision_var_2_17_ - 1 int_cand_flow_2_17,2,1_ <= 0
c2141: 5 int_line_decision_var_2_17_ - 1 int_cand_flow_2_17,3,1_ + 4.791566842357451 node_voltage_phase_angle_2,3,3,1_ - 4.791566842357451 node_voltage_phase_angle_2,12,3,1_ <= 5
c2142: 5 int_line_decision_var_2_17_ + 1 int_cand_flow_2_17,3,1_ - 4.791566842357451 node_voltage_phase_angle_2,3,3,1_ + 4.791566842357451 node_voltage_phase_angle_2,12,3,1_ <= 5
c2143: -1.17 int_line_decision_var_2_17_ + 1 int_cand_flow_2_17,3,1_ <= 0
c2144: -1.17 int_line_decision_var_2_17_ - 1 int_cand_flow_2_17,3,1_ <= 0
c2145: 5 int_line_decision_var_2_17_ - 1 int_cand_flow_2_17,4,1_ + 4.791566842357451 node_voltage_phase_angle_2,3,4,1_ - 4.791566842357451 node_voltage_phase_angle_2,12,4,1_ <= 5
c2146: 5 int_line_decision_var_2_17_ + 1 int_cand_flow_2_17,4,1_ - 4.791566842357451 node_voltage_phase_angle_2,3,4,1_ + 4.791566842357451 node_voltage_phase_angle_2,12,4,1_ <= 5
c2147: -1.17 int_line_decision_var_2_17_ + 1 int_cand_flow_2_17,4,1_ <= 0
c2148: -1.17 int_line_decision_var_2_17_ - 1 int_cand_flow_2_17,4,1_ <= 0
c2149: 5 int_line_decision_var_2_17_ - 1 int_cand_flow_2_17,1,2_ + 4.791566842357451 node_voltage_phase_angle_2,3,1,2_ - 4.791566842357451 node_voltage_phase_angle_2,12,1,2_ <= 5
c2150: 5 int_line_decision_var_2_17_ + 1 int_cand_flow_2_17,1,2_ - 4.791566842357451 node_voltage_phase_angle_2,3,1,2_ + 4.791566842357451 node_voltage_phase_angle_2,12,1,2_ <= 5
c2151: -1.17 int_line_decision_var_2_17_ + 1 int_cand_flow_2_17,1,2_ <= 0
c2152: -1.17 int_line_decision_var_2_17_ - 1 int_cand_flow_2_17,1,2_ <= 0
c2153: 5 int_line_decision_var_2_17_ - 1 int_cand_flow_2_17,2,2_ + 4.791566842357451 node_voltage_phase_angle_2,3,2,2_ - 4.791566842357451 node_voltage_phase_angle_2,12,2,2_ <= 5
c2154: 5 int_line_decision_var_2_17_ + 1 int_cand_flow_2_17,2,2_ - 4.791566842357451 node_voltage_phase_angle_2,3,2,2_ + 4.791566842357451 node_voltage_phase_angle_2,12,2,2_ <= 5
c2155: -1.17 int_line_decision_var_2_17_ + 1 int_cand_flow_2_17,2,2_ <= 0
c2156: -1.17 int_line_decision_var_2_17_ - 1 int_cand_flow_2_17,2,2_ <= 0
c2157: 5 int_line_decision_var_2_17_ - 1 int_cand_flow_2_17,3,2_ + 4.791566842357451 node_voltage_phase_angle_2,3,3,2_ - 4.791566842357451 node_voltage_phase_angle_2,12,3,2_ <= 5
c2158: 5 int_line_decision_var_2_17_ + 1 int_cand_flow_2_17,3,2_ - 4.791566842357451 node_voltage_phase_angle_2,3,3,2_ + 4.791566842357451 node_voltage_phase_angle_2,12,3,2_ <= 5
c2159: -1.17 int_line_decision_var_2_17_ + 1 int_cand_flow_2_17,3,2_ <= 0
c2160: -1.17 int_line_decision_var_2_17_ - 1 int_cand_flow_2_17,3,2_ <= 0
c2161: 5 int_line_decision_var_2_17_ - 1 int_cand_flow_2_17,4,2_ + 4.791566842357451 node_voltage_phase_angle_2,3,4,2_ - 4.791566842357451 node_voltage_phase_angle_2,12,4,2_ <= 5
c2162: 5 int_line_decision_var_2_17_ + 1 int_cand_flow_2_17,4,2_ - 4.791566842357451 node_voltage_phase_angle_2,3,4,2_ + 4.791566842357451 node_voltage_phase_angle_2,12,4,2_ <= 5
c2163: -1.17 int_line_decision_var_2_17_ + 1 int_cand_flow_2_17,4,2_ <= 0
c2164: -1.17 int_line_decision_var_2_17_ - 1 int_cand_flow_2_17,4,2_ <= 0
c2165: 5 int_line_decision_var_2_18_ - 1 int_cand_flow_2_18,1,1_ - 2.4078979051288227 node_voltage_phase_angle_2,8,1,1_ + 2.4078979051288227 node_voltage_phase_angle_2,20,1,1_ <= 5
c2166: 5 int_line_decision_var_2_18_ + 1 int_cand_flow_2_18,1,1_ + 2.4078979051288227 node_voltage_phase_angle_2,8,1,1_ - 2.4078979051288227 node_voltage_phase_angle_2,20,1,1_ <= 5
c2167: -1.19 int_line_decision_var_2_18_ + 1 int_cand_flow_2_18,1,1_ <= 0
c2168: -1.19 int_line_decision_var_2_18_ - 1 int_cand_flow_2_18,1,1_ <= 0
c2169: 5 int_line_decision_var_2_18_ - 1 int_cand_flow_2_18,2,1_ - 2.4078979051288227 node_voltage_phase_angle_2,8,2,1_ + 2.4078979051288227 node_voltage_phase_angle_2,20,2,1_ <= 5
c2170: 5 int_line_decision_var_2_18_ + 1 int_cand_flow_2_18,2,1_ + 2.4078979051288227 node_voltage_phase_angle_2,8,2,1_ - 2.4078979051288227 node_voltage_phase_angle_2,20,2,1_ <= 5
c2171: -1.19 int_line_decision_var_2_18_ + 1 int_cand_flow_2_18,2,1_ <= 0
c2172: -1.19 int_line_decision_var_2_18_ - 1 int_cand_flow_2_18,2,1_ <= 0
c2173: 5 int_line_decision_var_2_18_ - 1 int_cand_flow_2_18,3,1_ - 2.4078979051288227 node_voltage_phase_angle_2,8,3,1_ + 2.4078979051288227 node_voltage_phase_angle_2,20,3,1_ <= 5
c2174: 5 int_line_decision_var_2_18_ + 1 int_cand_flow_2_18,3,1_ + 2.4078979051288227 node_voltage_phase_angle_2,8,3,1_ - 2.4078979051288227 node_voltage_phase_angle_2,20,3,1_ <= 5
c2175: -1.19 int_line_decision_var_2_18_ + 1 int_cand_flow_2_18,3,1_ <= 0
c2176: -1.19 int_line_decision_var_2_18_ - 1 int_cand_flow_2_18,3,1_ <= 0
c2177: 5 int_line_decision_var_2_18_ - 1 int_cand_flow_2_18,4,1_ - 2.4078979051288227 node_voltage_phase_angle_2,8,4,1_ + 2.4078979051288227 node_voltage_phase_angle_2,20,4,1_ <= 5
c2178: 5 int_line_decision_var_2_18_ + 1 int_cand_flow_2_18,4,1_ + 2.4078979051288227 node_voltage_phase_angle_2,8,4,1_ - 2.4078979051288227 node_voltage_phase_angle_2,20,4,1_ <= 5
c2179: -1.19 int_line_decision_var_2_18_ + 1 int_cand_flow_2_18,4,1_ <= 0
c2180: -1.19 int_line_decision_var_2_18_ - 1 int_cand_flow_2_18,4,1_ <= 0
c2181: 5 int_line_decision_var_2_18_ - 1 int_cand_flow_2_18,1,2_ - 2.4078979051288227 node_voltage_phase_angle_2,8,1,2_ + 2.4078979051288227 node_voltage_phase_angle_2,20,1,2_ <= 5
c2182: 5 int_line_decision_var_2_18_ + 1 int_cand_flow_2_18,1,2_ + 2.4078979051288227 node_voltage_phase_angle_2,8,1,2_ - 2.4078979051288227 node_voltage_phase_angle_2,20,1,2_ <= 5
c2183: -1.19 int_line_decision_var_2_18_ + 1 int_cand_flow_2_18,1,2_ <= 0
c2184: -1.19 int_line_decision_var_2_18_ - 1 int_cand_flow_2_18,1,2_ <= 0
c2185: 5 int_line_decision_var_2_18_ - 1 int_cand_flow_2_18,2,2_ - 2.4078979051288227 node_voltage_phase_angle_2,8,2,2_ + 2.4078979051288227 node_voltage_phase_angle_2,20,2,2_ <= 5
c2186: 5 int_line_decision_var_2_18_ + 1 int_cand_flow_2_18,2,2_ + 2.4078979051288227 node_voltage_phase_angle_2,8,2,2_ - 2.4078979051288227 node_voltage_phase_angle_2,20,2,2_ <= 5
c2187: -1.19 int_line_decision_var_2_18_ + 1 int_cand_flow_2_18,2,2_ <= 0
c2188: -1.19 int_line_decision_var_2_18_ - 1 int_cand_flow_2_18,2,2_ <= 0
c2189: 5 int_line_decision_var_2_18_ - 1 int_cand_flow_2_18,3,2_ - 2.4078979051288227 node_voltage_phase_angle_2,8,3,2_ + 2.4078979051288227 node_voltage_phase_angle_2,20,3,2_ <= 5
c2190: 5 int_line_decision_var_2_18_ + 1 int_cand_flow_2_18,3,2_ + 2.4078979051288227 node_voltage_phase_angle_2,8,3,2_ - 2.4078979051288227 node_voltage_phase_angle_2,20,3,2_ <= 5
c2191: -1.19 int_line_decision_var_2_18_ + 1 int_cand_flow_2_18,3,2_ <= 0
c2192: -1.19 int_line_decision_var_2_18_ - 1 int_cand_flow_2_18,3,2_ <= 0
c2193: 5 int_line_decision_var_2_18_ - 1 int_cand_flow_2_18,4,2_ - 2.4078979051288227 node_voltage_phase_angle_2,8,4,2_ + 2.4078979051288227 node_voltage_phase_angle_2,20,4,2_ <= 5
c2194: 5 int_line_decision_var_2_18_ + 1 int_cand_flow_2_18,4,2_ + 2.4078979051288227 node_voltage_phase_angle_2,8,4,2_ - 2.4078979051288227 node_voltage_phase_angle_2,20,4,2_ <= 5
c2195: -1.19 int_line_decision_var_2_18_ + 1 int_cand_flow_2_18,4,2_ <= 0
c2196: -1.19 int_line_decision_var_2_18_ - 1 int_cand_flow_2_18,4,2_ <= 0
c2197: 5 int_line_decision_var_3_1_ - 1 int_cand_flow_3_1,1,1_ + 5.555555555555555 node_voltage_phase_angle_3,1,1,1_ - 5.555555555555555 node_voltage_phase_angle_3,2,1,1_ <= 5
c2198: 5 int_line_decision_var_3_1_ + 1 int_cand_flow_3_1,1,1_ - 5.555555555555555 node_voltage_phase_angle_3,1,1,1_ + 5.555555555555555 node_voltage_phase_angle_3,2,1,1_ <= 5
c2199: -1 int_line_decision_var_3_1_ + 1 int_cand_flow_3_1,1,1_ <= 0
c2200: -1 int_line_decision_var_3_1_ - 1 int_cand_flow_3_1,1,1_ <= 0
c2201: 5 int_line_decision_var_3_1_ - 1 int_cand_flow_3_1,2,1_ + 5.555555555555555 node_voltage_phase_angle_3,1,2,1_ - 5.555555555555555 node_voltage_phase_angle_3,2,2,1_ <= 5
c2202: 5 int_line_decision_var_3_1_ + 1 int_cand_flow_3_1,2,1_ - 5.555555555555555 node_voltage_phase_angle_3,1,2,1_ + 5.555555555555555 node_voltage_phase_angle_3,2,2,1_ <= 5
c2203: -1 int_line_decision_var_3_1_ + 1 int_cand_flow_3_1,2,1_ <= 0
c2204: -1 int_line_decision_var_3_1_ - 1 int_cand_flow_3_1,2,1_ <= 0
c2205: 5 int_line_decision_var_3_1_ - 1 int_cand_flow_3_1,3,1_ + 5.555555555555555 node_voltage_phase_angle_3,1,3,1_ - 5.555555555555555 node_voltage_phase_angle_3,2,3,1_ <= 5
c2206: 5 int_line_decision_var_3_1_ + 1 int_cand_flow_3_1,3,1_ - 5.555555555555555 node_voltage_phase_angle_3,1,3,1_ + 5.555555555555555 node_voltage_phase_angle_3,2,3,1_ <= 5
c2207: -1 int_line_decision_var_3_1_ + 1 int_cand_flow_3_1,3,1_ <= 0
c2208: -1 int_line_decision_var_3_1_ - 1 int_cand_flow_3_1,3,1_ <= 0
c2209: 5 int_line_decision_var_3_1_ - 1 int_cand_flow_3_1,4,1_ + 5.555555555555555 node_voltage_phase_angle_3,1,4,1_ - 5.555555555555555 node_voltage_phase_angle_3,2,4,1_ <= 5
c2210: 5 int_line_decision_var_3_1_ + 1 int_cand_flow_3_1,4,1_ - 5.555555555555555 node_voltage_phase_angle_3,1,4,1_ + 5.555555555555555 node_voltage_phase_angle_3,2,4,1_ <= 5
c2211: -1 int_line_decision_var_3_1_ + 1 int_cand_flow_3_1,4,1_ <= 0
c2212: -1 int_line_decision_var_3_1_ - 1 int_cand_flow_3_1,4,1_ <= 0
c2213: 5 int_line_decision_var_3_1_ - 1 int_cand_flow_3_1,1,2_ + 5.555555555555555 node_voltage_phase_angle_3,1,1,2_ - 5.555555555555555 node_voltage_phase_angle_3,2,1,2_ <= 5
c2214: 5 int_line_decision_var_3_1_ + 1 int_cand_flow_3_1,1,2_ - 5.555555555555555 node_voltage_phase_angle_3,1,1,2_ + 5.555555555555555 node_voltage_phase_angle_3,2,1,2_ <= 5
c2215: -1 int_line_decision_var_3_1_ + 1 int_cand_flow_3_1,1,2_ <= 0
c2216: -1 int_line_decision_var_3_1_ - 1 int_cand_flow_3_1,1,2_ <= 0
c2217: 5 int_line_decision_var_3_1_ - 1 int_cand_flow_3_1,2,2_ + 5.555555555555555 node_voltage_phase_angle_3,1,2,2_ - 5.555555555555555 node_voltage_phase_angle_3,2,2,2_ <= 5
c2218: 5 int_line_decision_var_3_1_ + 1 int_cand_flow_3_1,2,2_ - 5.555555555555555 node_voltage_phase_angle_3,1,2,2_ + 5.555555555555555 node_voltage_phase_angle_3,2,2,2_ <= 5
c2219: -1 int_line_decision_var_3_1_ + 1 int_cand_flow_3_1,2,2_ <= 0
c2220: -1 int_line_decision_var_3_1_ - 1 int_cand_flow_3_1,2,2_ <= 0
c2221: 5 int_line_decision_var_3_1_ - 1 int_cand_flow_3_1,3,2_ + 5.555555555555555 node_voltage_phase_angle_3,1,3,2_ - 5.555555555555555 node_voltage_phase_angle_3,2,3,2_ <= 5
c2222: 5 int_line_decision_var_3_1_ + 1 int_cand_flow_3_1,3,2_ - 5.555555555555555 node_voltage_phase_angle_3,1,3,2_ + 5.555555555555555 node_voltage_phase_angle_3,2,3,2_ <= 5
c2223: -1 int_line_decision_var_3_1_ + 1 int_cand_flow_3_1,3,2_ <= 0
c2224: -1 int_line_decision_var_3_1_ - 1 int_cand_flow_3_1,3,2_ <= 0
c2225: 5 int_line_decision_var_3_1_ - 1 int_cand_flow_3_1,4,2_ + 5.555555555555555 node_voltage_phase_angle_3,1,4,2_ - 5.555555555555555 node_voltage_phase_angle_3,2,4,2_ <= 5
c2226: 5 int_line_decision_var_3_1_ + 1 int_cand_flow_3_1,4,2_ - 5.555555555555555 node_voltage_phase_angle_3,1,4,2_ + 5.555555555555555 node_voltage_phase_angle_3,2,4,2_ <= 5
c2227: -1 int_line_decision_var_3_1_ + 1 int_cand_flow_3_1,4,2_ <= 0
c2228: -1 int_line_decision_var_3_1_ - 1 int_cand_flow_3_1,4,2_ <= 0
c2229: 5 int_line_decision_var_3_2_ - 1 int_cand_flow_3_2,1,1_ - 5.555555555555555 node_voltage_phase_angle_3,2,1,1_ + 5.555555555555555 node_voltage_phase_angle_3,5,1,1_ <= 5
c2230: 5 int_line_decision_var_3_2_ + 1 int_cand_flow_3_2,1,1_ + 5.555555555555555 node_voltage_phase_angle_3,2,1,1_ - 5.555555555555555 node_voltage_phase_angle_3,5,1,1_ <= 5
c2231: -1 int_line_decision_var_3_2_ + 1 int_cand_flow_3_2,1,1_ <= 0
c2232: -1 int_line_decision_var_3_2_ - 1 int_cand_flow_3_2,1,1_ <= 0
c2233: 5 int_line_decision_var_3_2_ - 1 int_cand_flow_3_2,2,1_ - 5.555555555555555 node_voltage_phase_angle_3,2,2,1_ + 5.555555555555555 node_voltage_phase_angle_3,5,2,1_ <= 5
c2234: 5 int_line_decision_var_3_2_ + 1 int_cand_flow_3_2,2,1_ + 5.555555555555555 node_voltage_phase_angle_3,2,2,1_ - 5.555555555555555 node_voltage_phase_angle_3,5,2,1_ <= 5
c2235: -1 int_line_decision_var_3_2_ + 1 int_cand_flow_3_2,2,1_ <= 0
c2236: -1 int_line_decision_var_3_2_ - 1 int_cand_flow_3_2,2,1_ <= 0
c2237: 5 int_line_decision_var_3_2_ - 1 int_cand_flow_3_2,3,1_ - 5.555555555555555 node_voltage_phase_angle_3,2,3,1_ + 5.555555555555555 node_voltage_phase_angle_3,5,3,1_ <= 5
c2238: 5 int_line_decision_var_3_2_ + 1 int_cand_flow_3_2,3,1_ + 5.555555555555555 node_voltage_phase_angle_3,2,3,1_ - 5.555555555555555 node_voltage_phase_angle_3,5,3,1_ <= 5
c2239: -1 int_line_decision_var_3_2_ + 1 int_cand_flow_3_2,3,1_ <= 0
c2240: -1 int_line_decision_var_3_2_ - 1 int_cand_flow_3_2,3,1_ <= 0
c2241: 5 int_line_decision_var_3_2_ - 1 int_cand_flow_3_2,4,1_ - 5.555555555555555 node_voltage_phase_angle_3,2,4,1_ + 5.555555555555555 node_voltage_phase_angle_3,5,4,1_ <= 5
c2242: 5 int_line_decision_var_3_2_ + 1 int_cand_flow_3_2,4,1_ + 5.555555555555555 node_voltage_phase_angle_3,2,4,1_ - 5.555555555555555 node_voltage_phase_angle_3,5,4,1_ <= 5
c2243: -1 int_line_decision_var_3_2_ + 1 int_cand_flow_3_2,4,1_ <= 0
c2244: -1 int_line_decision_var_3_2_ - 1 int_cand_flow_3_2,4,1_ <= 0
c2245: 5 int_line_decision_var_3_2_ - 1 int_cand_flow_3_2,1,2_ - 5.555555555555555 node_voltage_phase_angle_3,2,1,2_ + 5.555555555555555 node_voltage_phase_angle_3,5,1,2_ <= 5
c2246: 5 int_line_decision_var_3_2_ + 1 int_cand_flow_3_2,1,2_ + 5.555555555555555 node_voltage_phase_angle_3,2,1,2_ - 5.555555555555555 node_voltage_phase_angle_3,5,1,2_ <= 5
c2247: -1 int_line_decision_var_3_2_ + 1 int_cand_flow_3_2,1,2_ <= 0
c2248: -1 int_line_decision_var_3_2_ - 1 int_cand_flow_3_2,1,2_ <= 0
c2249: 5 int_line_decision_var_3_2_ - 1 int_cand_flow_3_2,2,2_ - 5.555555555555555 node_voltage_phase_angle_3,2,2,2_ + 5.555555555555555 node_voltage_phase_angle_3,5,2,2_ <= 5
c2250: 5 int_line_decision_var_3_2_ + 1 int_cand_flow_3_2,2,2_ + 5.555555555555555 node_voltage_phase_angle_3,2,2,2_ - 5.555555555555555 node_voltage_phase_angle_3,5,2,2_ <= 5
c2251: -1 int_line_decision_var_3_2_ + 1 int_cand_flow_3_2,2,2_ <= 0
c2252: -1 int_line_decision_var_3_2_ - 1 int_cand_flow_3_2,2,2_ <= 0
c2253: 5 int_line_decision_var_3_2_ - 1 int_cand_flow_3_2,3,2_ - 5.555555555555555 node_voltage_phase_angle_3,2,3,2_ + 5.555555555555555 node_voltage_phase_angle_3,5,3,2_ <= 5
c2254: 5 int_line_decision_var_3_2_ + 1 int_cand_flow_3_2,3,2_ + 5.555555555555555 node_voltage_phase_angle_3,2,3,2_ - 5.555555555555555 node_voltage_phase_angle_3,5,3,2_ <= 5
c2255: -1 int_line_decision_var_3_2_ + 1 int_cand_flow_3_2,3,2_ <= 0
c2256: -1 int_line_decision_var_3_2_ - 1 int_cand_flow_3_2,3,2_ <= 0
c2257: 5 int_line_decision_var_3_2_ - 1 int_cand_flow_3_2,4,2_ - 5.555555555555555 node_voltage_phase_angle_3,2,4,2_ + 5.555555555555555 node_voltage_phase_angle_3,5,4,2_ <= 5
c2258: 5 int_line_decision_var_3_2_ + 1 int_cand_flow_3_2,4,2_ + 5.555555555555555 node_voltage_phase_angle_3,2,4,2_ - 5.555555555555555 node_voltage_phase_angle_3,5,4,2_ <= 5
c2259: -1 int_line_decision_var_3_2_ + 1 int_cand_flow_3_2,4,2_ <= 0
c2260: -1 int_line_decision_var_3_2_ - 1 int_cand_flow_3_2,4,2_ <= 0
c2261: 1 int_ex_flow_1_1,1,1_ <= 1
c2262: -1 int_ex_flow_1_1,1,1_ <= 1
c2263: 1 int_ex_flow_1_1,2,1_ <= 1
c2264: -1 int_ex_flow_1_1,2,1_ <= 1
c2265: 1 int_ex_flow_1_1,3,1_ <= 1
c2266: -1 int_ex_flow_1_1,3,1_ <= 1
c2267: 1 int_ex_flow_1_1,4,1_ <= 1
c2268: -1 int_ex_flow_1_1,4,1_ <= 1
c2269: 1 int_ex_flow_1_1,1,2_ <= 1
c2270: -1 int_ex_flow_1_1,1,2_ <= 1
c2271: 1 int_ex_flow_1_1,2,2_ <= 1
c2272: -1 int_ex_flow_1_1,2,2_ <= 1
c2273: 1 int_ex_flow_1_1,3,2_ <= 1
c2274: -1 int_ex_flow_1_1,3,2_ <= 1
c2275: 1 int_ex_flow_1_1,4,2_ <= 1
c2276: -1 int_ex_flow_1_1,4,2_ <= 1
c2277: 1 int_ex_flow_1_2,1,1_ <= 1
c2278: -1 int_ex_flow_1_2,1,1_ <= 1
c2279: 1 int_ex_flow_1_2,2,1_ <= 1
c2280: -1 int_ex_flow_1_2,2,1_ <= 1
c2281: 1 int_ex_flow_1_2,3,1_ <= 1
c2282: -1 int_ex_flow_1_2,3,1_ <= 1
c2283: 1 int_ex_flow_1_2,4,1_ <= 1
c2284: -1 int_ex_flow_1_2,4,1_ <= 1
c2285: 1 int_ex_flow_1_2,1,2_ <= 1
c2286: -1 int_ex_flow_1_2,1,2_ <= 1
c2287: 1 int_ex_flow_1_2,2,2_ <= 1
c2288: -1 int_ex_flow_1_2,2,2_ <= 1
c2289: 1 int_ex_flow_1_2,3,2_ <= 1
c2290: -1 int_ex_flow_1_2,3,2_ <= 1
c2291: 1 int_ex_flow_1_2,4,2_ <= 1
c2292: -1 int_ex_flow_1_2,4,2_ <= 1
c2293: 1 int_ex_flow_1_3,1,1_ <= 1
c2294: -1 int_ex_flow_1_3,1,1_ <= 1
c2295: 1 int_ex_flow_1_3,2,1_ <= 1
c2296: -1 int_ex_flow_1_3,2,1_ <= 1
c2297: 1 int_ex_flow_1_3,3,1_ <= 1
c2298: -1 int_ex_flow_1_3,3,1_ <= 1
c2299: 1 int_ex_flow_1_3,4,1_ <= 1
c2300: -1 int_ex_flow_1_3,4,1_ <= 1
c2301: 1 int_ex_flow_1_3,1,2_ <= 1
c2302: -1 int_ex_flow_1_3,1,2_ <= 1
c2303: 1 int_ex_flow_1_3,2,2_ <= 1
c2304: -1 int_ex_flow_1_3,2,2_ <= 1
c2305: 1 int_ex_flow_1_3,3,2_ <= 1
c2306: -1 int_ex_flow_1_3,3,2_ <= 1
c2307: 1 int_ex_flow_1_3,4,2_ <= 1
c2308: -1 int_ex_flow_1_3,4,2_ <= 1
c2309: 1 int_ex_flow_1_4,1,1_ <= 1
c2310: -1 int_ex_flow_1_4,1,1_ <= 1
c2311: 1 int_ex_flow_1_4,2,1_ <= 1
c2312: -1 int_ex_flow_1_4,2,1_ <= 1
c2313: 1 int_ex_flow_1_4,3,1_ <= 1
c2314: -1 int_ex_flow_1_4,3,1_ <= 1
c2315: 1 int_ex_flow_1_4,4,1_ <= 1
c2316: -1 int_ex_flow_1_4,4,1_ <= 1
c2317: 1 int_ex_flow_1_4,1,2_ <= 1
c2318: -1 int_ex_flow_1_4,1,2_ <= 1
c2319: 1 int_ex_flow_1_4,2,2_ <= 1
c2320: -1 int_ex_flow_1_4,2,2_ <= 1
c2321: 1 int_ex_flow_1_4,3,2_ <= 1
c2322: -1 int_ex_flow_1_4,3,2_ <= 1
c2323: 1 int_ex_flow_1_4,4,2_ <= 1
c2324: -1 int_ex_flow_1_4,4,2_ <= 1
c2325: 1 int_ex_flow_1_5,1,1_ <= 1
c2326: -1 int_ex_flow_1_5,1,1_ <= 1
c2327: 1 int_ex_flow_1_5,2,1_ <= 1
c2328: -1 int_ex_flow_1_5,2,1_ <= 1
c2329: 1 int_ex_flow_1_5,3,1_ <= 1
c2330: -1 int_ex_flow_1_5,3,1_ <= 1
c2331: 1 int_ex_flow_1_5,4,1_ <= 1
c2332: -1 int_ex_flow_1_5,4,1_ <= 1
c2333: 1 int_ex_flow_1_5,1,2_ <= 1
c2334: -1 int_ex_flow_1_5,1,2_ <= 1
c2335: 1 int_ex_flow_1_5,2,2_ <= 1
c2336: -1 int_ex_flow_1_5,2,2_ <= 1
c2337: 1 int_ex_flow_1_5,3,2_ <= 1
c2338: -1 int_ex_flow_1_5,3,2_ <= 1
c2339: 1 int_ex_flow_1_5,4,2_ <= 1
c2340: -1 int_ex_flow_1_5,4,2_ <= 1
c2341: 1 int_ex_flow_1_6,1,1_ <= 1
c2342: -1 int_ex_flow_1_6,1,1_ <= 1
c2343: 1 int_ex_flow_1_6,2,1_ <= 1
c2344: -1 int_ex_flow_1_6,2,1_ <= 1
c2345: 1 int_ex_flow_1_6,3,1_ <= 1
c2346: -1 int_ex_flow_1_6,3,1_ <= 1
c2347: 1 int_ex_flow_1_6,4,1_ <= 1
c2348: -1 int_ex_flow_1_6,4,1_ <= 1
c2349: 1 int_ex_flow_1_6,1,2_ <= 1
c2350: -1 int_ex_flow_1_6,1,2_ <= 1
c2351: 1 int_ex_flow_1_6,2,2_ <= 1
c2352: -1 int_ex_flow_1_6,2,2_ <= 1
c2353: 1 int_ex_flow_1_6,3,2_ <= 1
c2354: -1 int_ex_flow_1_6,3,2_ <= 1
c2355: 1 int_ex_flow_1_6,4,2_ <= 1
c2356: -1 int_ex_flow_1_6,4,2_ <= 1
c2357: 1 int_ex_flow_1_7,1,1_ <= 1
c2358: -1 int_ex_flow_1_7,1,1_ <= 1
c2359: 1 int_ex_flow_1_7,2,1_ <= 1
c2360: -1 int_ex_flow_1_7,2,1_ <= 1
c2361: 1 int_ex_flow_1_7,3,1_ <= 1
c2362: -1 int_ex_flow_1_7,3,1_ <= 1
c2363: 1 int_ex_flow_1_7,4,1_ <= 1
c2364: -1 int_ex_flow_1_7,4,1_ <= 1
c2365: 1 int_ex_flow_1_7,1,2_ <= 1
c2366: -1 int_ex_flow_1_7,1,2_ <= 1
c2367: 1 int_ex_flow_1_7,2,2_ <= 1
c2368: -1 int_ex_flow_1_7,2,2_ <= 1
c2369: 1 int_ex_flow_1_7,3,2_ <= 1
c2370: -1 int_ex_flow_1_7,3,2_ <= 1
c2371: 1 int_ex_flow_1_7,4,2_ <= 1
c2372: -1 int_ex_flow_1_7,4,2_ <= 1
c2373: 1 int_ex_flow_1_8,1,1_ <= 1
c2374: -1 int_ex_flow_1_8,1,1_ <= 1
c2375: 1 int_ex_flow_1_8,2,1_ <= 1
c2376: -1 int_ex_flow_1_8,2,1_ <= 1
c2377: 1 int_ex_flow_1_8,3,1_ <= 1
c2378: -1 int_ex_flow_1_8,3,1_ <= 1
c2379: 1 int_ex_flow_1_8,4,1_ <= 1
c2380: -1 int_ex_flow_1_8,4,1_ <= 1
c2381: 1 int_ex_flow_1_8,1,2_ <= 1
c2382: -1 int_ex_flow_1_8,1,2_ <= 1
c2383: 1 int_ex_flow_1_8,2,2_ <= 1
c2384: -1 int_ex_flow_1_8,2,2_ <= 1
c2385: 1 int_ex_flow_1_8,3,2_ <= 1
c2386: -1 int_ex_flow_1_8,3,2_ <= 1
c2387: 1 int_ex_flow_1_8,4,2_ <= 1
c2388: -1 int_ex_flow_1_8,4,2_ <= 1
c2389: 1 int_ex_flow_1_9,1,1_ <= 1
c2390: -1 int_ex_flow_1_9,1,1_ <= 1
c2391: 1 int_ex_flow_1_9,2,1_ <= 1
c2392: -1 int_ex_flow_1_9,2,1_ <= 1
c2393: 1 int_ex_flow_1_9,3,1_ <= 1
c2394: -1 int_ex_flow_1_9,3,1_ <= 1
c2395: 1 int_ex_flow_1_9,4,1_ <= 1
c2396: -1 int_ex_flow_1_9,4,1_ <= 1
c2397: 1 int_ex_flow_1_9,1,2_ <= 1
c2398: -1 int_ex_flow_1_9,1,2_ <= 1
c2399: 1 int_ex_flow_1_9,2,2_ <= 1
c2400: -1 int_ex_flow_1_9,2,2_ <= 1
c2401: 1 int_ex_flow_1_9,3,2_ <= 1
c2402: -1 int_ex_flow_1_9,3,2_ <= 1
c2403: 1 int_ex_flow_1_9,4,2_ <= 1
c2404: -1 int_ex_flow_1_9,4,2_ <= 1
c2405: 1 int_ex_flow_1_10,1,1_ <= 1
c2406: -1 int_ex_flow_1_10,1,1_ <= 1
c2407: 1 int_ex_flow_1_10,2,1_ <= 1
c2408: -1 int_ex_flow_1_10,2,1_ <= 1
c2409: 1 int_ex_flow_1_10,3,1_ <= 1
c2410: -1 int_ex_flow_1_10,3,1_ <= 1
c2411: 1 int_ex_flow_1_10,4,1_ <= 1
c2412: -1 int_ex_flow_1_10,4,1_ <= 1
c2413: 1 int_ex_flow_1_10,1,2_ <= 1
c2414: -1 int_ex_flow_1_10,1,2_ <= 1
c2415: 1 int_ex_flow_1_10,2,2_ <= 1
c2416: -1 int_ex_flow_1_10,2,2_ <= 1
c2417: 1 int_ex_flow_1_10,3,2_ <= 1
c2418: -1 int_ex_flow_1_10,3,2_ <= 1
c2419: 1 int_ex_flow_1_10,4,2_ <= 1
c2420: -1 int_ex_flow_1_10,4,2_ <= 1
c2421: 1 int_ex_flow_1_11,1,1_ <= 1
c2422: -1 int_ex_flow_1_11,1,1_ <= 1
c2423: 1 int_ex_flow_1_11,2,1_ <= 1
c2424: -1 int_ex_flow_1_11,2,1_ <= 1
c2425: 1 int_ex_flow_1_11,3,1_ <= 1
c2426: -1 int_ex_flow_1_11,3,1_ <= 1
c2427: 1 int_ex_flow_1_11,4,1_ <= 1
c2428: -1 int_ex_flow_1_11,4,1_ <= 1
c2429: 1 int_ex_flow_1_11,1,2_ <= 1
c2430: -1 int_ex_flow_1_11,1,2_ <= 1
c2431: 1 int_ex_flow_1_11,2,2_ <= 1
c2432: -1 int_ex_flow_1_11,2,2_ <= 1
c2433: 1 int_ex_flow_1_11,3,2_ <= 1
c2434: -1 int_ex_flow_1_11,3,2_ <= 1
c2435: 1 int_ex_flow_1_11,4,2_ <= 1
c2436: -1 int_ex_flow_1_11,4,2_ <= 1
c2437: 1 int_ex_flow_1_12,1,1_ <= 1
c2438: -1 int_ex_flow_1_12,1,1_ <= 1
c2439: 1 int_ex_flow_1_12,2,1_ <= 1
c2440: -1 int_ex_flow_1_12,2,1_ <= 1
c2441: 1 int_ex_flow_1_12,3,1_ <= 1
c2442: -1 int_ex_flow_1_12,3,1_ <= 1
c2443: 1 int_ex_flow_1_12,4,1_ <= 1
c2444: -1 int_ex_flow_1_12,4,1_ <= 1
c2445: 1 int_ex_flow_1_12,1,2_ <= 1
c2446: -1 int_ex_flow_1_12,1,2_ <= 1
c2447: 1 int_ex_flow_1_12,2,2_ <= 1
c2448: -1 int_ex_flow_1_12,2,2_ <= 1
c2449: 1 int_ex_flow_1_12,3,2_ <= 1
c2450: -1 int_ex_flow_1_12,3,2_ <= 1
c2451: 1 int_ex_flow_1_12,4,2_ <= 1
c2452: -1 int_ex_flow_1_12,4,2_ <= 1
c2453: 1 int_ex_flow_1_13,1,1_ <= 1
c2454: -1 int_ex_flow_1_13,1,1_ <= 1
c2455: 1 int_ex_flow_1_13,2,1_ <= 1
c2456: -1 int_ex_flow_1_13,2,1_ <= 1
c2457: 1 int_ex_flow_1_13,3,1_ <= 1
c2458: -1 int_ex_flow_1_13,3,1_ <= 1
c2459: 1 int_ex_flow_1_13,4,1_ <= 1
c2460: -1 int_ex_flow_1_13,4,1_ <= 1
c2461: 1 int_ex_flow_1_13,1,2_ <= 1
c2462: -1 int_ex_flow_1_13,1,2_ <= 1
c2463: 1 int_ex_flow_1_13,2,2_ <= 1
c2464: -1 int_ex_flow_1_13,2,2_ <= 1
c2465: 1 int_ex_flow_1_13,3,2_ <= 1
c2466: -1 int_ex_flow_1_13,3,2_ <= 1
c2467: 1 int_ex_flow_1_13,4,2_ <= 1
c2468: -1 int_ex_flow_1_13,4,2_ <= 1
c2469: 1 int_ex_flow_1_14,1,1_ <= 1
c2470: -1 int_ex_flow_1_14,1,1_ <= 1
c2471: 1 int_ex_flow_1_14,2,1_ <= 1
c2472: -1 int_ex_flow_1_14,2,1_ <= 1
c2473: 1 int_ex_flow_1_14,3,1_ <= 1
c2474: -1 int_ex_flow_1_14,3,1_ <= 1
c2475: 1 int_ex_flow_1_14,4,1_ <= 1
c2476: -1 int_ex_flow_1_14,4,1_ <= 1
c2477: 1 int_ex_flow_1_14,1,2_ <= 1
c2478: -1 int_ex_flow_1_14,1,2_ <= 1
c2479: 1 int_ex_flow_1_14,2,2_ <= 1
c2480: -1 int_ex_flow_1_14,2,2_ <= 1
c2481: 1 int_ex_flow_1_14,3,2_ <= 1
c2482: -1 int_ex_flow_1_14,3,2_ <= 1
c2483: 1 int_ex_flow_1_14,4,2_ <= 1
c2484: -1 int_ex_flow_1_14,4,2_ <= 1
c2485: 1 int_ex_flow_1_15,1,1_ <= 1
c2486: -1 int_ex_flow_1_15,1,1_ <= 1
c2487: 1 int_ex_flow_1_15,2,1_ <= 1
c2488: -1 int_ex_flow_1_15,2,1_ <= 1
c2489: 1 int_ex_flow_1_15,3,1_ <= 1
c2490: -1 int_ex_flow_1_15,3,1_ <= 1
c2491: 1 int_ex_flow_1_15,4,1_ <= 1
c2492: -1 int_ex_flow_1_15,4,1_ <= 1
c2493: 1 int_ex_flow_1_15,1,2_ <= 1
c2494: -1 int_ex_flow_1_15,1,2_ <= 1
c2495: 1 int_ex_flow_1_15,2,2_ <= 1
c2496: -1 int_ex_flow_1_15,2,2_ <= 1
c2497: 1 int_ex_flow_1_15,3,2_ <= 1
c2498: -1 int_ex_flow_1_15,3,2_ <= 1
c2499: 1 int_ex_flow_1_15,4,2_ <= 1
c2500: -1 int_ex_flow_1_15,4,2_ <= 1
c2501: 1 int_ex_flow_1_16,1,1_ <= 1
c2502: -1 int_ex_flow_1_16,1,1_ <= 1
c2503: 1 int_ex_flow_1_16,2,1_ <= 1
c2504: -1 int_ex_flow_1_16,2,1_ <= 1
c2505: 1 int_ex_flow_1_16,3,1_ <= 1
c2506: -1 int_ex_flow_1_16,3,1_ <= 1
c2507: 1 int_ex_flow_1_16,4,1_ <= 1
c2508: -1 int_ex_flow_1_16,4,1_ <= 1
c2509: 1 int_ex_flow_1_16,1,2_ <= 1
c2510: -1 int_ex_flow_1_16,1,2_ <= 1
c2511: 1 int_ex_flow_1_16,2,2_ <= 1
c2512: -1 int_ex_flow_1_16,2,2_ <= 1
c2513: 1 int_ex_flow_1_16,3,2_ <= 1
c2514: -1 int_ex_flow_1_16,3,2_ <= 1
c2515: 1 int_ex_flow_1_16,4,2_ <= 1
c2516: -1 int_ex_flow_1_16,4,2_ <= 1
c2517: 1 int_ex_flow_1_17,1,1_ <= 1
c2518: -1 int_ex_flow_1_17,1,1_ <= 1
c2519: 1 int_ex_flow_1_17,2,1_ <= 1
c2520: -1 int_ex_flow_1_17,2,1_ <= 1
c2521: 1 int_ex_flow_1_17,3,1_ <= 1
c2522: -1 int_ex_flow_1_17,3,1_ <= 1
c2523: 1 int_ex_flow_1_17,4,1_ <= 1
c2524: -1 int_ex_flow_1_17,4,1_ <= 1
c2525: 1 int_ex_flow_1_17,1,2_ <= 1
c2526: -1 int_ex_flow_1_17,1,2_ <= 1
c2527: 1 int_ex_flow_1_17,2,2_ <= 1
c2528: -1 int_ex_flow_1_17,2,2_ <= 1
c2529: 1 int_ex_flow_1_17,3,2_ <= 1
c2530: -1 int_ex_flow_1_17,3,2_ <= 1
c2531: 1 int_ex_flow_1_17,4,2_ <= 1
c2532: -1 int_ex_flow_1_17,4,2_ <= 1
c2533: 1 int_ex_flow_1_18,1,1_ <= 1
c2534: -1 int_ex_flow_1_18,1,1_ <= 1
c2535: 1 int_ex_flow_1_18,2,1_ <= 1
c2536: -1 int_ex_flow_1_18,2,1_ <= 1
c2537: 1 int_ex_flow_1_18,3,1_ <= 1
c2538: -1 int_ex_flow_1_18,3,1_ <= 1
c2539: 1 int_ex_flow_1_18,4,1_ <= 1
c2540: -1 int_ex_flow_1_18,4,1_ <= 1
c2541: 1 int_ex_flow_1_18,1,2_ <= 1
c2542: -1 int_ex_flow_1_18,1,2_ <= 1
c2543: 1 int_ex_flow_1_18,2,2_ <= 1
c2544: -1 int_ex_flow_1_18,2,2_ <= 1
c2545: 1 int_ex_flow_1_18,3,2_ <= 1
c2546: -1 int_ex_flow_1_18,3,2_ <= 1
c2547: 1 int_ex_flow_1_18,4,2_ <= 1
c2548: -1 int_ex_flow_1_18,4,2_ <= 1
c2549: 1 int_ex_flow_1_19,1,1_ <= 1
c2550: -1 int_ex_flow_1_19,1,1_ <= 1
c2551: 1 int_ex_flow_1_19,2,1_ <= 1
c2552: -1 int_ex_flow_1_19,2,1_ <= 1
c2553: 1 int_ex_flow_1_19,3,1_ <= 1
c2554: -1 int_ex_flow_1_19,3,1_ <= 1
c2555: 1 int_ex_flow_1_19,4,1_ <= 1
c2556: -1 int_ex_flow_1_19,4,1_ <= 1
c2557: 1 int_ex_flow_1_19,1,2_ <= 1
c2558: -1 int_ex_flow_1_19,1,2_ <= 1
c2559: 1 int_ex_flow_1_19,2,2_ <= 1
c2560: -1 int_ex_flow_1_19,2,2_ <= 1
c2561: 1 int_ex_flow_1_19,3,2_ <= 1
c2562: -1 int_ex_flow_1_19,3,2_ <= 1
c2563: 1 int_ex_flow_1_19,4,2_ <= 1
c2564: -1 int_ex_flow_1_19,4,2_ <= 1
c2565: 1 int_ex_flow_1_20,1,1_ <= 1
c2566: -1 int_ex_flow_1_20,1,1_ <= 1
c2567: 1 int_ex_flow_1_20,2,1_ <= 1
c2568: -1 int_ex_flow_1_20,2,1_ <= 1
c2569: 1 int_ex_flow_1_20,3,1_ <= 1
c2570: -1 int_ex_flow_1_20,3,1_ <= 1
c2571: 1 int_ex_flow_1_20,4,1_ <= 1
c2572: -1 int_ex_flow_1_20,4,1_ <= 1
c2573: 1 int_ex_flow_1_20,1,2_ <= 1
c2574: -1 int_ex_flow_1_20,1,2_ <= 1
c2575: 1 int_ex_flow_1_20,2,2_ <= 1
c2576: -1 int_ex_flow_1_20,2,2_ <= 1
c2577: 1 int_ex_flow_1_20,3,2_ <= 1
c2578: -1 int_ex_flow_1_20,3,2_ <= 1
c2579: 1 int_ex_flow_1_20,4,2_ <= 1
c2580: -1 int_ex_flow_1_20,4,2_ <= 1
c2581: 1 int_ex_flow_2_1,1,1_ <= 1
c2582: -1 int_ex_flow_2_1,1,1_ <= 1
c2583: 1 int_ex_flow_2_1,2,1_ <= 1
c2584: -1 int_ex_flow_2_1,2,1_ <= 1
c2585: 1 int_ex_flow_2_1,3,1_ <= 1
c2586: -1 int_ex_flow_2_1,3,1_ <= 1
c2587: 1 int_ex_flow_2_1,4,1_ <= 1
c2588: -1 int_ex_flow_2_1,4,1_ <= 1
c2589: 1 int_ex_flow_2_1,1,2_ <= 1
c2590: -1 int_ex_flow_2_1,1,2_ <= 1
c2591: 1 int_ex_flow_2_1,2,2_ <= 1
c2592: -1 int_ex_flow_2_1,2,2_ <= 1
c2593: 1 int_ex_flow_2_1,3,2_ <= 1
c2594: -1 int_ex_flow_2_1,3,2_ <= 1
c2595: 1 int_ex_flow_2_1,4,2_ <= 1
c2596: -1 int_ex_flow_2_1,4,2_ <= 1
c2597: 1 int_ex_flow_2_2,1,1_ <= 1
c2598: -1 int_ex_flow_2_2,1,1_ <= 1
c2599: 1 int_ex_flow_2_2,2,1_ <= 1
c2600: -1 int_ex_flow_2_2,2,1_ <= 1
c2601: 1 int_ex_flow_2_2,3,1_ <= 1
c2602: -1 int_ex_flow_2_2,3,1_ <= 1
c2603: 1 int_ex_flow_2_2,4,1_ <= 1
c2604: -1 int_ex_flow_2_2,4,1_ <= 1
c2605: 1 int_ex_flow_2_2,1,2_ <= 1
c2606: -1 int_ex_flow_2_2,1,2_ <= 1
c2607: 1 int_ex_flow_2_2,2,2_ <= 1
c2608: -1 int_ex_flow_2_2,2,2_ <= 1
c2609: 1 int_ex_flow_2_2,3,2_ <= 1
c2610: -1 int_ex_flow_2_2,3,2_ <= 1
c2611: 1 int_ex_flow_2_2,4,2_ <= 1
c2612: -1 int_ex_flow_2_2,4,2_ <= 1
c2613: 1 int_ex_flow_2_3,1,1_ <= 1
c2614: -1 int_ex_flow_2_3,1,1_ <= 1
c2615: 1 int_ex_flow_2_3,2,1_ <= 1
c2616: -1 int_ex_flow_2_3,2,1_ <= 1
c2617: 1 int_ex_flow_2_3,3,1_ <= 1
c2618: -1 int_ex_flow_2_3,3,1_ <= 1
c2619: 1 int_ex_flow_2_3,4,1_ <= 1
c2620: -1 int_ex_flow_2_3,4,1_ <= 1
c2621: 1 int_ex_flow_2_3,1,2_ <= 1
c2622: -1 int_ex_flow_2_3,1,2_ <= 1
c2623: 1 int_ex_flow_2_3,2,2_ <= 1
c2624: -1 int_ex_flow_2_3,2,2_ <= 1
c2625: 1 int_ex_flow_2_3,3,2_ <= 1
c2626: -1 int_ex_flow_2_3,3,2_ <= 1
c2627: 1 int_ex_flow_2_3,4,2_ <= 1
c2628: -1 int_ex_flow_2_3,4,2_ <= 1
c2629: 1 int_ex_flow_2_4,1,1_ <= 1
c2630: -1 int_ex_flow_2_4,1,1_ <= 1
c2631: 1 int_ex_flow_2_4,2,1_ <= 1
c2632: -1 int_ex_flow_2_4,2,1_ <= 1
c2633: 1 int_ex_flow_2_4,3,1_ <= 1
c2634: -1 int_ex_flow_2_4,3,1_ <= 1
c2635: 1 int_ex_flow_2_4,4,1_ <= 1
c2636: -1 int_ex_flow_2_4,4,1_ <= 1
c2637: 1 int_ex_flow_2_4,1,2_ <= 1
c2638: -1 int_ex_flow_2_4,1,2_ <= 1
c2639: 1 int_ex_flow_2_4,2,2_ <= 1
c2640: -1 int_ex_flow_2_4,2,2_ <= 1
c2641: 1 int_ex_flow_2_4,3,2_ <= 1
c2642: -1 int_ex_flow_2_4,3,2_ <= 1
c2643: 1 int_ex_flow_2_4,4,2_ <= 1
c2644: -1 int_ex_flow_2_4,4,2_ <= 1
c2645: 1 int_ex_flow_2_5,1,1_ <= 1
c2646: -1 int_ex_flow_2_5,1,1_ <= 1
c2647: 1 int_ex_flow_2_5,2,1_ <= 1
c2648: -1 int_ex_flow_2_5,2,1_ <= 1
c2649: 1 int_ex_flow_2_5,3,1_ <= 1
c2650: -1 int_ex_flow_2_5,3,1_ <= 1
c2651: 1 int_ex_flow_2_5,4,1_ <= 1
c2652: -1 int_ex_flow_2_5,4,1_ <= 1
c2653: 1 int_ex_flow_2_5,1,2_ <= 1
c2654: -1 int_ex_flow_2_5,1,2_ <= 1
c2655: 1 int_ex_flow_2_5,2,2_ <= 1
c2656: -1 int_ex_flow_2_5,2,2_ <= 1
c2657: 1 int_ex_flow_2_5,3,2_ <= 1
c2658: -1 int_ex_flow_2_5,3,2_ <= 1
c2659: 1 int_ex_flow_2_5,4,2_ <= 1
c2660: -1 int_ex_flow_2_5,4,2_ <= 1
c2661: 1 int_ex_flow_2_6,1,1_ <= 1
c2662: -1 int_ex_flow_2_6,1,1_ <= 1
c2663: 1 int_ex_flow_2_6,2,1_ <= 1
c2664: -1 int_ex_flow_2_6,2,1_ <= 1
c2665: 1 int_ex_flow_2_6,3,1_ <= 1
c2666: -1 int_ex_flow_2_6,3,1_ <= 1
c2667: 1 int_ex_flow_2_6,4,1_ <= 1
c2668: -1 int_ex_flow_2_6,4,1_ <= 1
c2669: 1 int_ex_flow_2_6,1,2_ <= 1
c2670: -1 int_ex_flow_2_6,1,2_ <= 1
c2671: 1 int_ex_flow_2_6,2,2_ <= 1
c2672: -1 int_ex_flow_2_6,2,2_ <= 1
c2673: 1 int_ex_flow_2_6,3,2_ <= 1
c2674: -1 int_ex_flow_2_6,3,2_ <= 1
c2675: 1 int_ex_flow_2_6,4,2_ <= 1
c2676: -1 int_ex_flow_2_6,4,2_ <= 1
c2677: 1 int_ex_flow_2_7,1,1_ <= 1
c2678: -1 int_ex_flow_2_7,1,1_ <= 1
c2679: 1 int_ex_flow_2_7,2,1_ <= 1
c2680: -1 int_ex_flow_2_7,2,1_ <= 1
c2681: 1 int_ex_flow_2_7,3,1_ <= 1
c2682: -1 int_ex_flow_2_7,3,1_ <= 1
c2683: 1 int_ex_flow_2_7,4,1_ <= 1
c2684: -1 int_ex_flow_2_7,4,1_ <= 1
c2685: 1 int_ex_flow_2_7,1,2_ <= 1
c2686: -1 int_ex_flow_2_7,1,2_ <= 1
c2687: 1 int_ex_flow_2_7,2,2_ <= 1
c2688: -1 int_ex_flow_2_7,2,2_ <= 1
c2689: 1 int_ex_flow_2_7,3,2_ <= 1
c2690: -1 int_ex_flow_2_7,3,2_ <= 1
c2691: 1 int_ex_flow_2_7,4,2_ <= 1
c2692: -1 int_ex_flow_2_7,4,2_ <= 1
c2693: 1 int_ex_flow_2_8,1,1_ <= 1
c2694: -1 int_ex_flow_2_8,1,1_ <= 1
c2695: 1 int_ex_flow_2_8,2,1_ <= 1
c2696: -1 int_ex_flow_2_8,2,1_ <= 1
c2697: 1 int_ex_flow_2_8,3,1_ <= 1
c2698: -1 int_ex_flow_2_8,3,1_ <= 1
c2699: 1 int_ex_flow_2_8,4,1_ <= 1
c2700: -1 int_ex_flow_2_8,4,1_ <= 1
c2701: 1 int_ex_flow_2_8,1,2_ <= 1
c2702: -1 int_ex_flow_2_8,1,2_ <= 1
c2703: 1 int_ex_flow_2_8,2,2_ <= 1
c2704: -1 int_ex_flow_2_8,2,2_ <= 1
c2705: 1 int_ex_flow_2_8,3,2_ <= 1
c2706: -1 int_ex_flow_2_8,3,2_ <= 1
c2707: 1 int_ex_flow_2_8,4,2_ <= 1
c2708: -1 int_ex_flow_2_8,4,2_ <= 1
c2709: 1 int_ex_flow_2_9,1,1_ <= 1
c2710: -1 int_ex_flow_2_9,1,1_ <= 1
c2711: 1 int_ex_flow_2_9,2,1_ <= 1
c2712: -1 int_ex_flow_2_9,2,1_ <= 1
c2713: 1 int_ex_flow_2_9,3,1_ <= 1
c2714: -1 int_ex_flow_2_9,3,1_ <= 1
c2715: 1 int_ex_flow_2_9,4,1_ <= 1
c2716: -1 int_ex_flow_2_9,4,1_ <= 1
c2717: 1 int_ex_flow_2_9,1,2_ <= 1
c2718: -1 int_ex_flow_2_9,1,2_ <= 1
c2719: 1 int_ex_flow_2_9,2,2_ <= 1
c2720: -1 int_ex_flow_2_9,2,2_ <= 1
c2721: 1 int_ex_flow_2_9,3,2_ <= 1
c2722: -1 int_ex_flow_2_9,3,2_ <= 1
c2723: 1 int_ex_flow_2_9,4,2_ <= 1
c2724: -1 int_ex_flow_2_9,4,2_ <= 1
c2725: 1 int_ex_flow_2_10,1,1_ <= 1
c2726: -1 int_ex_flow_2_10,1,1_ <= 1
c2727: 1 int_ex_flow_2_10,2,1_ <= 1
c2728: -1 int_ex_flow_2_10,2,1_ <= 1
c2729: 1 int_ex_flow_2_10,3,1_ <= 1
c2730: -1 int_ex_flow_2_10,3,1_ <= 1
c2731: 1 int_ex_flow_2_10,4,1_ <= 1
c2732: -1 int_ex_flow_2_10,4,1_ <= 1
c2733: 1 int_ex_flow_2_10,1,2_ <= 1
c2734: -1 int_ex_flow_2_10,1,2_ <= 1
c2735: 1 int_ex_flow_2_10,2,2_ <= 1
c2736: -1 int_ex_flow_2_10,2,2_ <= 1
c2737: 1 int_ex_flow_2_10,3,2_ <= 1
c2738: -1 int_ex_flow_2_10,3,2_ <= 1
c2739: 1 int_ex_flow_2_10,4,2_ <= 1
c2740: -1 int_ex_flow_2_10,4,2_ <= 1
c2741: 1 int_ex_flow_2_11,1,1_ <= 1
c2742: -1 int_ex_flow_2_11,1,1_ <= 1
c2743: 1 int_ex_flow_2_11,2,1_ <= 1
c2744: -1 int_ex_flow_2_11,2,1_ <= 1
c2745: 1 int_ex_flow_2_11,3,1_ <= 1
c2746: -1 int_ex_flow_2_11,3,1_ <= 1
c2747: 1 int_ex_flow_2_11,4,1_ <= 1
c2748: -1 int_ex_flow_2_11,4,1_ <= 1
c2749: 1 int_ex_flow_2_11,1,2_ <= 1
c2750: -1 int_ex_flow_2_11,1,2_ <= 1
c2751: 1 int_ex_flow_2_11,2,2_ <= 1
c2752: -1 int_ex_flow_2_11,2,2_ <= 1
c2753: 1 int_ex_flow_2_11,3,2_ <= 1
c2754: -1 int_ex_flow_2_11,3,2_ <= 1
c2755: 1 int_ex_flow_2_11,4,2_ <= 1
c2756: -1 int_ex_flow_2_11,4,2_ <= 1
c2757: 1 int_ex_flow_2_12,1,1_ <= 1
c2758: -1 int_ex_flow_2_12,1,1_ <= 1
c2759: 1 int_ex_flow_2_12,2,1_ <= 1
c2760: -1 int_ex_flow_2_12,2,1_ <= 1
c2761: 1 int_ex_flow_2_12,3,1_ <= 1
c2762: -1 int_ex_flow_2_12,3,1_ <= 1
c2763: 1 int_ex_flow_2_12,4,1_ <= 1
c2764: -1 int_ex_flow_2_12,4,1_ <= 1
c2765: 1 int_ex_flow_2_12,1,2_ <= 1
c2766: -1 int_ex_flow_2_12,1,2_ <= 1
c2767: 1 int_ex_flow_2_12,2,2_ <= 1
c2768: -1 int_ex_flow_2_12,2,2_ <= 1
c2769: 1 int_ex_flow_2_12,3,2_ <= 1
c2770: -1 int_ex_flow_2_12,3,2_ <= 1
c2771: 1 int_ex_flow_2_12,4,2_ <= 1
c2772: -1 int_ex_flow_2_12,4,2_ <= 1
c2773: 1 int_ex_flow_2_13,1,1_ <= 1
c2774: -1 int_ex_flow_2_13,1,1_ <= 1
c2775: 1 int_ex_flow_2_13,2,1_ <= 1
c2776: -1 int_ex_flow_2_13,2,1_ <= 1
c2777: 1 int_ex_flow_2_13,3,1_ <= 1
c2778: -1 int_ex_flow_2_13,3,1_ <= 1
c2779: 1 int_ex_flow_2_13,4,1_ <= 1
c2780: -1 int_ex_flow_2_13,4,1_ <= 1
c2781: 1 int_ex_flow_2_13,1,2_ <= 1
c2782: -1 int_ex_flow_2_13,1,2_ <= 1
c2783: 1 int_ex_flow_2_13,2,2_ <= 1
c2784: -1 int_ex_flow_2_13,2,2_ <= 1
c2785: 1 int_ex_flow_2_13,3,2_ <= 1
c2786: -1 int_ex_flow_2_13,3,2_ <= 1
c2787: 1 int_ex_flow_2_13,4,2_ <= 1
c2788: -1 int_ex_flow_2_13,4,2_ <= 1
c2789: 1 int_ex_flow_2_14,1,1_ <= 1
c2790: -1 int_ex_flow_2_14,1,1_ <= 1
c2791: 1 int_ex_flow_2_14,2,1_ <= 1
c2792: -1 int_ex_flow_2_14,2,1_ <= 1
c2793: 1 int_ex_flow_2_14,3,1_ <= 1
c2794: -1 int_ex_flow_2_14,3,1_ <= 1
c2795: 1 int_ex_flow_2_14,4,1_ <= 1
c2796: -1 int_ex_flow_2_14,4,1_ <= 1
c2797: 1 int_ex_flow_2_14,1,2_ <= 1
c2798: -1 int_ex_flow_2_14,1,2_ <= 1
c2799: 1 int_ex_flow_2_14,2,2_ <= 1
c2800: -1 int_ex_flow_2_14,2,2_ <= 1
c2801: 1 int_ex_flow_2_14,3,2_ <= 1
c2802: -1 int_ex_flow_2_14,3,2_ <= 1
c2803: 1 int_ex_flow_2_14,4,2_ <= 1
c2804: -1 int_ex_flow_2_14,4,2_ <= 1
c2805: 1 int_ex_flow_2_15,1,1_ <= 1
c2806: -1 int_ex_flow_2_15,1,1_ <= 1
c2807: 1 int_ex_flow_2_15,2,1_ <= 1
c2808: -1 int_ex_flow_2_15,2,1_ <= 1
c2809: 1 int_ex_flow_2_15,3,1_ <= 1
c2810: -1 int_ex_flow_2_15,3,1_ <= 1
c2811: 1 int_ex_flow_2_15,4,1_ <= 1
c2812: -1 int_ex_flow_2_15,4,1_ <= 1
c2813: 1 int_ex_flow_2_15,1,2_ <= 1
c2814: -1 int_ex_flow_2_15,1,2_ <= 1
c2815: 1 int_ex_flow_2_15,2,2_ <= 1
c2816: -1 int_ex_flow_2_15,2,2_ <= 1
c2817: 1 int_ex_flow_2_15,3,2_ <= 1
c2818: -1 int_ex_flow_2_15,3,2_ <= 1
c2819: 1 int_ex_flow_2_15,4,2_ <= 1
c2820: -1 int_ex_flow_2_15,4,2_ <= 1
c2821: 1 int_ex_flow_2_16,1,1_ <= 1
c2822: -1 int_ex_flow_2_16,1,1_ <= 1
c2823: 1 int_ex_flow_2_16,2,1_ <= 1
c2824: -1 int_ex_flow_2_16,2,1_ <= 1
c2825: 1 int_ex_flow_2_16,3,1_ <= 1
c2826: -1 int_ex_flow_2_16,3,1_ <= 1
c2827: 1 int_ex_flow_2_16,4,1_ <= 1
c2828: -1 int_ex_flow_2_16,4,1_ <= 1
c2829: 1 int_ex_flow_2_16,1,2_ <= 1
c2830: -1 int_ex_flow_2_16,1,2_ <= 1
c2831: 1 int_ex_flow_2_16,2,2_ <= 1
c2832: -1 int_ex_flow_2_16,2,2_ <= 1
c2833: 1 int_ex_flow_2_16,3,2_ <= 1
c2834: -1 int_ex_flow_2_16,3,2_ <= 1
c2835: 1 int_ex_flow_2_16,4,2_ <= 1
c2836: -1 int_ex_flow_2_16,4,2_ <= 1
c2837: 1 int_ex_flow_2_17,1,1_ <= 1
c2838: -1 int_ex_flow_2_17,1,1_ <= 1
c2839: 1 int_ex_flow_2_17,2,1_ <= 1
c2840: -1 int_ex_flow_2_17,2,1_ <= 1
c2841: 1 int_ex_flow_2_17,3,1_ <= 1
c2842: -1 int_ex_flow_2_17,3,1_ <= 1
c2843: 1 int_ex_flow_2_17,4,1_ <= 1
c2844: -1 int_ex_flow_2_17,4,1_ <= 1
c2845: 1 int_ex_flow_2_17,1,2_ <= 1
c2846: -1 int_ex_flow_2_17,1,2_ <= 1
c2847: 1 int_ex_flow_2_17,2,2_ <= 1
c2848: -1 int_ex_flow_2_17,2,2_ <= 1
c2849: 1 int_ex_flow_2_17,3,2_ <= 1
c2850: -1 int_ex_flow_2_17,3,2_ <= 1
c2851: 1 int_ex_flow_2_17,4,2_ <= 1
c2852: -1 int_ex_flow_2_17,4,2_ <= 1
c2853: 1 int_ex_flow_2_18,1,1_ <= 1
c2854: -1 int_ex_flow_2_18,1,1_ <= 1
c2855: 1 int_ex_flow_2_18,2,1_ <= 1
c2856: -1 int_ex_flow_2_18,2,1_ <= 1
c2857: 1 int_ex_flow_2_18,3,1_ <= 1
c2858: -1 int_ex_flow_2_18,3,1_ <= 1
c2859: 1 int_ex_flow_2_18,4,1_ <= 1
c2860: -1 int_ex_flow_2_18,4,1_ <= 1
c2861: 1 int_ex_flow_2_18,1,2_ <= 1
c2862: -1 int_ex_flow_2_18,1,2_ <= 1
c2863: 1 int_ex_flow_2_18,2,2_ <= 1
c2864: -1 int_ex_flow_2_18,2,2_ <= 1
c2865: 1 int_ex_flow_2_18,3,2_ <= 1
c2866: -1 int_ex_flow_2_18,3,2_ <= 1
c2867: 1 int_ex_flow_2_18,4,2_ <= 1
c2868: -1 int_ex_flow_2_18,4,2_ <= 1
c2869: 1 int_ex_flow_2_19,1,1_ <= 1
c2870: -1 int_ex_flow_2_19,1,1_ <= 1
c2871: 1 int_ex_flow_2_19,2,1_ <= 1
c2872: -1 int_ex_flow_2_19,2,1_ <= 1
c2873: 1 int_ex_flow_2_19,3,1_ <= 1
c2874: -1 int_ex_flow_2_19,3,1_ <= 1
c2875: 1 int_ex_flow_2_19,4,1_ <= 1
c2876: -1 int_ex_flow_2_19,4,1_ <= 1
c2877: 1 int_ex_flow_2_19,1,2_ <= 1
c2878: -1 int_ex_flow_2_19,1,2_ <= 1
c2879: 1 int_ex_flow_2_19,2,2_ <= 1
c2880: -1 int_ex_flow_2_19,2,2_ <= 1
c2881: 1 int_ex_flow_2_19,3,2_ <= 1
c2882: -1 int_ex_flow_2_19,3,2_ <= 1
c2883: 1 int_ex_flow_2_19,4,2_ <= 1
c2884: -1 int_ex_flow_2_19,4,2_ <= 1
c2885: 1 int_ex_flow_2_20,1,1_ <= 1
c2886: -1 int_ex_flow_2_20,1,1_ <= 1
c2887: 1 int_ex_flow_2_20,2,1_ <= 1
c2888: -1 int_ex_flow_2_20,2,1_ <= 1
c2889: 1 int_ex_flow_2_20,3,1_ <= 1
c2890: -1 int_ex_flow_2_20,3,1_ <= 1
c2891: 1 int_ex_flow_2_20,4,1_ <= 1
c2892: -1 int_ex_flow_2_20,4,1_ <= 1
c2893: 1 int_ex_flow_2_20,1,2_ <= 1
c2894: -1 int_ex_flow_2_20,1,2_ <= 1
c2895: 1 int_ex_flow_2_20,2,2_ <= 1
c2896: -1 int_ex_flow_2_20,2,2_ <= 1
c2897: 1 int_ex_flow_2_20,3,2_ <= 1
c2898: -1 int_ex_flow_2_20,3,2_ <= 1
c2899: 1 int_ex_flow_2_20,4,2_ <= 1
c2900: -1 int_ex_flow_2_20,4,2_ <= 1
c2901: 1 int_ex_flow_2_21,1,1_ <= 1
c2902: -1 int_ex_flow_2_21,1,1_ <= 1
c2903: 1 int_ex_flow_2_21,2,1_ <= 1
c2904: -1 int_ex_flow_2_21,2,1_ <= 1
c2905: 1 int_ex_flow_2_21,3,1_ <= 1
c2906: -1 int_ex_flow_2_21,3,1_ <= 1
c2907: 1 int_ex_flow_2_21,4,1_ <= 1
c2908: -1 int_ex_flow_2_21,4,1_ <= 1
c2909: 1 int_ex_flow_2_21,1,2_ <= 1
c2910: -1 int_ex_flow_2_21,1,2_ <= 1
c2911: 1 int_ex_flow_2_21,2,2_ <= 1
c2912: -1 int_ex_flow_2_21,2,2_ <= 1
c2913: 1 int_ex_flow_2_21,3,2_ <= 1
c2914: -1 int_ex_flow_2_21,3,2_ <= 1
c2915: 1 int_ex_flow_2_21,4,2_ <= 1
c2916: -1 int_ex_flow_2_21,4,2_ <= 1
c2917: 1 int_ex_flow_2_22,1,1_ <= 1
c2918: -1 int_ex_flow_2_22,1,1_ <= 1
c2919: 1 int_ex_flow_2_22,2,1_ <= 1
c2920: -1 int_ex_flow_2_22,2,1_ <= 1
c2921: 1 int_ex_flow_2_22,3,1_ <= 1
c2922: -1 int_ex_flow_2_22,3,1_ <= 1
c2923: 1 int_ex_flow_2_22,4,1_ <= 1
c2924: -1 int_ex_flow_2_22,4,1_ <= 1
c2925: 1 int_ex_flow_2_22,1,2_ <= 1
c2926: -1 int_ex_flow_2_22,1,2_ <= 1
c2927: 1 int_ex_flow_2_22,2,2_ <= 1
c2928: -1 int_ex_flow_2_22,2,2_ <= 1
c2929: 1 int_ex_flow_2_22,3,2_ <= 1
c2930: -1 int_ex_flow_2_22,3,2_ <= 1
c2931: 1 int_ex_flow_2_22,4,2_ <= 1
c2932: -1 int_ex_flow_2_22,4,2_ <= 1
c2933: 1 int_ex_flow_2_23,1,1_ <= 1
c2934: -1 int_ex_flow_2_23,1,1_ <= 1
c2935: 1 int_ex_flow_2_23,2,1_ <= 1
c2936: -1 int_ex_flow_2_23,2,1_ <= 1
c2937: 1 int_ex_flow_2_23,3,1_ <= 1
c2938: -1 int_ex_flow_2_23,3,1_ <= 1
c2939: 1 int_ex_flow_2_23,4,1_ <= 1
c2940: -1 int_ex_flow_2_23,4,1_ <= 1
c2941: 1 int_ex_flow_2_23,1,2_ <= 1
c2942: -1 int_ex_flow_2_23,1,2_ <= 1
c2943: 1 int_ex_flow_2_23,2,2_ <= 1
c2944: -1 int_ex_flow_2_23,2,2_ <= 1
c2945: 1 int_ex_flow_2_23,3,2_ <= 1
c2946: -1 int_ex_flow_2_23,3,2_ <= 1
c2947: 1 int_ex_flow_2_23,4,2_ <= 1
c2948: -1 int_ex_flow_2_23,4,2_ <= 1
c2949: 1 int_ex_flow_2_24,1,1_ <= 1
c2950: -1 int_ex_flow_2_24,1,1_ <= 1
c2951: 1 int_ex_flow_2_24,2,1_ <= 1
c2952: -1 int_ex_flow_2_24,2,1_ <= 1
c2953: 1 int_ex_flow_2_24,3,1_ <= 1
c2954: -1 int_ex_flow_2_24,3,1_ <= 1
c2955: 1 int_ex_flow_2_24,4,1_ <= 1
c2956: -1 int_ex_flow_2_24,4,1_ <= 1
c2957: 1 int_ex_flow_2_24,1,2_ <= 1
c2958: -1 int_ex_flow_2_24,1,2_ <= 1
c2959: 1 int_ex_flow_2_24,2,2_ <= 1
c2960: -1 int_ex_flow_2_24,2,2_ <= 1
c2961: 1 int_ex_flow_2_24,3,2_ <= 1
c2962: -1 int_ex_flow_2_24,3,2_ <= 1
c2963: 1 int_ex_flow_2_24,4,2_ <= 1
c2964: -1 int_ex_flow_2_24,4,2_ <= 1
c2965: 1 int_ex_flow_2_25,1,1_ <= 1
c2966: -1 int_ex_flow_2_25,1,1_ <= 1
c2967: 1 int_ex_flow_2_25,2,1_ <= 1
c2968: -1 int_ex_flow_2_25,2,1_ <= 1
c2969: 1 int_ex_flow_2_25,3,1_ <= 1
c2970: -1 int_ex_flow_2_25,3,1_ <= 1
c2971: 1 int_ex_flow_2_25,4,1_ <= 1
c2972: -1 int_ex_flow_2_25,4,1_ <= 1
c2973: 1 int_ex_flow_2_25,1,2_ <= 1
c2974: -1 int_ex_flow_2_25,1,2_ <= 1
c2975: 1 int_ex_flow_2_25,2,2_ <= 1
c2976: -1 int_ex_flow_2_25,2,2_ <= 1
c2977: 1 int_ex_flow_2_25,3,2_ <= 1
c2978: -1 int_ex_flow_2_25,3,2_ <= 1
c2979: 1 int_ex_flow_2_25,4,2_ <= 1
c2980: -1 int_ex_flow_2_25,4,2_ <= 1
c2981: 1 int_ex_flow_2_26,1,1_ <= 1
c2982: -1 int_ex_flow_2_26,1,1_ <= 1
c2983: 1 int_ex_flow_2_26,2,1_ <= 1
c2984: -1 int_ex_flow_2_26,2,1_ <= 1
c2985: 1 int_ex_flow_2_26,3,1_ <= 1
c2986: -1 int_ex_flow_2_26,3,1_ <= 1
c2987: 1 int_ex_flow_2_26,4,1_ <= 1
c2988: -1 int_ex_flow_2_26,4,1_ <= 1
c2989: 1 int_ex_flow_2_26,1,2_ <= 1
c2990: -1 int_ex_flow_2_26,1,2_ <= 1
c2991: 1 int_ex_flow_2_26,2,2_ <= 1
c2992: -1 int_ex_flow_2_26,2,2_ <= 1
c2993: 1 int_ex_flow_2_26,3,2_ <= 1
c2994: -1 int_ex_flow_2_26,3,2_ <= 1
c2995: 1 int_ex_flow_2_26,4,2_ <= 1
c2996: -1 int_ex_flow_2_26,4,2_ <= 1
c2997: 1 int_ex_flow_2_27,1,1_ <= 1
c2998: -1 int_ex_flow_2_27,1,1_ <= 1
c2999: 1 int_ex_flow_2_27,2,1_ <= 1
c3000: -1 int_ex_flow_2_27,2,1_ <= 1
c3001: 1 int_ex_flow_2_27,3,1_ <= 1
c3002: -1 int_ex_flow_2_27,3,1_ <= 1
c3003: 1 int_ex_flow_2_27,4,1_ <= 1
c3004: -1 int_ex_flow_2_27,4,1_ <= 1
c3005: 1 int_ex_flow_2_27,1,2_ <= 1
c3006: -1 int_ex_flow_2_27,1,2_ <= 1
c3007: 1 int_ex_flow_2_27,2,2_ <= 1
c3008: -1 int_ex_flow_2_27,2,2_ <= 1
c3009: 1 int_ex_flow_2_27,3,2_ <= 1
c3010: -1 int_ex_flow_2_27,3,2_ <= 1
c3011: 1 int_ex_flow_2_27,4,2_ <= 1
c3012: -1 int_ex_flow_2_27,4,2_ <= 1
c3013: 1 int_ex_flow_2_28,1,1_ <= 1
c3014: -1 int_ex_flow_2_28,1,1_ <= 1
c3015: 1 int_ex_flow_2_28,2,1_ <= 1
c3016: -1 int_ex_flow_2_28,2,1_ <= 1
c3017: 1 int_ex_flow_2_28,3,1_ <= 1
c3018: -1 int_ex_flow_2_28,3,1_ <= 1
c3019: 1 int_ex_flow_2_28,4,1_ <= 1
c3020: -1 int_ex_flow_2_28,4,1_ <= 1
c3021: 1 int_ex_flow_2_28,1,2_ <= 1
c3022: -1 int_ex_flow_2_28,1,2_ <= 1
c3023: 1 int_ex_flow_2_28,2,2_ <= 1
c3024: -1 int_ex_flow_2_28,2,2_ <= 1
c3025: 1 int_ex_flow_2_28,3,2_ <= 1
c3026: -1 int_ex_flow_2_28,3,2_ <= 1
c3027: 1 int_ex_flow_2_28,4,2_ <= 1
c3028: -1 int_ex_flow_2_28,4,2_ <= 1
c3029: 1 int_ex_flow_2_29,1,1_ <= 1
c3030: -1 int_ex_flow_2_29,1,1_ <= 1
c3031: 1 int_ex_flow_2_29,2,1_ <= 1
c3032: -1 int_ex_flow_2_29,2,1_ <= 1
c3033: 1 int_ex_flow_2_29,3,1_ <= 1
c3034: -1 int_ex_flow_2_29,3,1_ <= 1
c3035: 1 int_ex_flow_2_29,4,1_ <= 1
c3036: -1 int_ex_flow_2_29,4,1_ <= 1
c3037: 1 int_ex_flow_2_29,1,2_ <= 1
c3038: -1 int_ex_flow_2_29,1,2_ <= 1
c3039: 1 int_ex_flow_2_29,2,2_ <= 1
c3040: -1 int_ex_flow_2_29,2,2_ <= 1
c3041: 1 int_ex_flow_2_29,3,2_ <= 1
c3042: -1 int_ex_flow_2_29,3,2_ <= 1
c3043: 1 int_ex_flow_2_29,4,2_ <= 1
c3044: -1 int_ex_flow_2_29,4,2_ <= 1
c3045: 1 int_ex_flow_2_30,1,1_ <= 1
c3046: -1 int_ex_flow_2_30,1,1_ <= 1
c3047: 1 int_ex_flow_2_30,2,1_ <= 1
c3048: -1 int_ex_flow_2_30,2,1_ <= 1
c3049: 1 int_ex_flow_2_30,3,1_ <= 1
c3050: -1 int_ex_flow_2_30,3,1_ <= 1
c3051: 1 int_ex_flow_2_30,4,1_ <= 1
c3052: -1 int_ex_flow_2_30,4,1_ <= 1
c3053: 1 int_ex_flow_2_30,1,2_ <= 1
c3054: -1 int_ex_flow_2_30,1,2_ <= 1
c3055: 1 int_ex_flow_2_30,2,2_ <= 1
c3056: -1 int_ex_flow_2_30,2,2_ <= 1
c3057: 1 int_ex_flow_2_30,3,2_ <= 1
c3058: -1 int_ex_flow_2_30,3,2_ <= 1
c3059: 1 int_ex_flow_2_30,4,2_ <= 1
c3060: -1 int_ex_flow_2_30,4,2_ <= 1
c3061: 1 int_ex_flow_2_31,1,1_ <= 1
c3062: -1 int_ex_flow_2_31,1,1_ <= 1
c3063: 1 int_ex_flow_2_31,2,1_ <= 1
c3064: -1 int_ex_flow_2_31,2,1_ <= 1
c3065: 1 int_ex_flow_2_31,3,1_ <= 1
c3066: -1 int_ex_flow_2_31,3,1_ <= 1
c3067: 1 int_ex_flow_2_31,4,1_ <= 1
c3068: -1 int_ex_flow_2_31,4,1_ <= 1
c3069: 1 int_ex_flow_2_31,1,2_ <= 1
c3070: -1 int_ex_flow_2_31,1,2_ <= 1
c3071: 1 int_ex_flow_2_31,2,2_ <= 1
c3072: -1 int_ex_flow_2_31,2,2_ <= 1
c3073: 1 int_ex_flow_2_31,3,2_ <= 1
c3074: -1 int_ex_flow_2_31,3,2_ <= 1
c3075: 1 int_ex_flow_2_31,4,2_ <= 1
c3076: -1 int_ex_flow_2_31,4,2_ <= 1
c3077: 1 int_ex_flow_2_32,1,1_ <= 1
c3078: -1 int_ex_flow_2_32,1,1_ <= 1
c3079: 1 int_ex_flow_2_32,2,1_ <= 1
c3080: -1 int_ex_flow_2_32,2,1_ <= 1
c3081: 1 int_ex_flow_2_32,3,1_ <= 1
c3082: -1 int_ex_flow_2_32,3,1_ <= 1
c3083: 1 int_ex_flow_2_32,4,1_ <= 1
c3084: -1 int_ex_flow_2_32,4,1_ <= 1
c3085: 1 int_ex_flow_2_32,1,2_ <= 1
c3086: -1 int_ex_flow_2_32,1,2_ <= 1
c3087: 1 int_ex_flow_2_32,2,2_ <= 1
c3088: -1 int_ex_flow_2_32,2,2_ <= 1
c3089: 1 int_ex_flow_2_32,3,2_ <= 1
c3090: -1 int_ex_flow_2_32,3,2_ <= 1
c3091: 1 int_ex_flow_2_32,4,2_ <= 1
c3092: -1 int_ex_flow_2_32,4,2_ <= 1
c3093: 1 int_ex_flow_2_33,1,1_ <= 1
c3094: -1 int_ex_flow_2_33,1,1_ <= 1
c3095: 1 int_ex_flow_2_33,2,1_ <= 1
c3096: -1 int_ex_flow_2_33,2,1_ <= 1
c3097: 1 int_ex_flow_2_33,3,1_ <= 1
c3098: -1 int_ex_flow_2_33,3,1_ <= 1
c3099: 1 int_ex_flow_2_33,4,1_ <= 1
c3100: -1 int_ex_flow_2_33,4,1_ <= 1
c3101: 1 int_ex_flow_2_33,1,2_ <= 1
c3102: -1 int_ex_flow_2_33,1,2_ <= 1
c3103: 1 int_ex_flow_2_33,2,2_ <= 1
c3104: -1 int_ex_flow_2_33,2,2_ <= 1
c3105: 1 int_ex_flow_2_33,3,2_ <= 1
c3106: -1 int_ex_flow_2_33,3,2_ <= 1
c3107: 1 int_ex_flow_2_33,4,2_ <= 1
c3108: -1 int_ex_flow_2_33,4,2_ <= 1
c3109: 1 int_ex_flow_2_34,1,1_ <= 1
c3110: -1 int_ex_flow_2_34,1,1_ <= 1
c3111: 1 int_ex_flow_2_34,2,1_ <= 1
c3112: -1 int_ex_flow_2_34,2,1_ <= 1
c3113: 1 int_ex_flow_2_34,3,1_ <= 1
c3114: -1 int_ex_flow_2_34,3,1_ <= 1
c3115: 1 int_ex_flow_2_34,4,1_ <= 1
c3116: -1 int_ex_flow_2_34,4,1_ <= 1
c3117: 1 int_ex_flow_2_34,1,2_ <= 1
c3118: -1 int_ex_flow_2_34,1,2_ <= 1
c3119: 1 int_ex_flow_2_34,2,2_ <= 1
c3120: -1 int_ex_flow_2_34,2,2_ <= 1
c3121: 1 int_ex_flow_2_34,3,2_ <= 1
c3122: -1 int_ex_flow_2_34,3,2_ <= 1
c3123: 1 int_ex_flow_2_34,4,2_ <= 1
c3124: -1 int_ex_flow_2_34,4,2_ <= 1
c3125: 1 int_ex_flow_2_35,1,1_ <= 1
c3126: -1 int_ex_flow_2_35,1,1_ <= 1
c3127: 1 int_ex_flow_2_35,2,1_ <= 1
c3128: -1 int_ex_flow_2_35,2,1_ <= 1
c3129: 1 int_ex_flow_2_35,3,1_ <= 1
c3130: -1 int_ex_flow_2_35,3,1_ <= 1
c3131: 1 int_ex_flow_2_35,4,1_ <= 1
c3132: -1 int_ex_flow_2_35,4,1_ <= 1
c3133: 1 int_ex_flow_2_35,1,2_ <= 1
c3134: -1 int_ex_flow_2_35,1,2_ <= 1
c3135: 1 int_ex_flow_2_35,2,2_ <= 1
c3136: -1 int_ex_flow_2_35,2,2_ <= 1
c3137: 1 int_ex_flow_2_35,3,2_ <= 1
c3138: -1 int_ex_flow_2_35,3,2_ <= 1
c3139: 1 int_ex_flow_2_35,4,2_ <= 1
c3140: -1 int_ex_flow_2_35,4,2_ <= 1
c3141: 1 int_ex_flow_2_36,1,1_ <= 1
c3142: -1 int_ex_flow_2_36,1,1_ <= 1
c3143: 1 int_ex_flow_2_36,2,1_ <= 1
c3144: -1 int_ex_flow_2_36,2,1_ <= 1
c3145: 1 int_ex_flow_2_36,3,1_ <= 1
c3146: -1 int_ex_flow_2_36,3,1_ <= 1
c3147: 1 int_ex_flow_2_36,4,1_ <= 1
c3148: -1 int_ex_flow_2_36,4,1_ <= 1
c3149: 1 int_ex_flow_2_36,1,2_ <= 1
c3150: -1 int_ex_flow_2_36,1,2_ <= 1
c3151: 1 int_ex_flow_2_36,2,2_ <= 1
c3152: -1 int_ex_flow_2_36,2,2_ <= 1
c3153: 1 int_ex_flow_2_36,3,2_ <= 1
c3154: -1 int_ex_flow_2_36,3,2_ <= 1
c3155: 1 int_ex_flow_2_36,4,2_ <= 1
c3156: -1 int_ex_flow_2_36,4,2_ <= 1
c3157: 1 int_ex_flow_2_37,1,1_ <= 1
c3158: -1 int_ex_flow_2_37,1,1_ <= 1
c3159: 1 int_ex_flow_2_37,2,1_ <= 1
c3160: -1 int_ex_flow_2_37,2,1_ <= 1
c3161: 1 int_ex_flow_2_37,3,1_ <= 1
c3162: -1 int_ex_flow_2_37,3,1_ <= 1
c3163: 1 int_ex_flow_2_37,4,1_ <= 1
c3164: -1 int_ex_flow_2_37,4,1_ <= 1
c3165: 1 int_ex_flow_2_37,1,2_ <= 1
c3166: -1 int_ex_flow_2_37,1,2_ <= 1
c3167: 1 int_ex_flow_2_37,2,2_ <= 1
c3168: -1 int_ex_flow_2_37,2,2_ <= 1
c3169: 1 int_ex_flow_2_37,3,2_ <= 1
c3170: -1 int_ex_flow_2_37,3,2_ <= 1
c3171: 1 int_ex_flow_2_37,4,2_ <= 1
c3172: -1 int_ex_flow_2_37,4,2_ <= 1
c3173: 1 int_ex_flow_2_38,1,1_ <= 1
c3174: -1 int_ex_flow_2_38,1,1_ <= 1
c3175: 1 int_ex_flow_2_38,2,1_ <= 1
c3176: -1 int_ex_flow_2_38,2,1_ <= 1
c3177: 1 int_ex_flow_2_38,3,1_ <= 1
c3178: -1 int_ex_flow_2_38,3,1_ <= 1
c3179: 1 int_ex_flow_2_38,4,1_ <= 1
c3180: -1 int_ex_flow_2_38,4,1_ <= 1
c3181: 1 int_ex_flow_2_38,1,2_ <= 1
c3182: -1 int_ex_flow_2_38,1,2_ <= 1
c3183: 1 int_ex_flow_2_38,2,2_ <= 1
c3184: -1 int_ex_flow_2_38,2,2_ <= 1
c3185: 1 int_ex_flow_2_38,3,2_ <= 1
c3186: -1 int_ex_flow_2_38,3,2_ <= 1
c3187: 1 int_ex_flow_2_38,4,2_ <= 1
c3188: -1 int_ex_flow_2_38,4,2_ <= 1
c3189: 1 int_ex_flow_2_39,1,1_ <= 1
c3190: -1 int_ex_flow_2_39,1,1_ <= 1
c3191: 1 int_ex_flow_2_39,2,1_ <= 1
c3192: -1 int_ex_flow_2_39,2,1_ <= 1
c3193: 1 int_ex_flow_2_39,3,1_ <= 1
c3194: -1 int_ex_flow_2_39,3,1_ <= 1
c3195: 1 int_ex_flow_2_39,4,1_ <= 1
c3196: -1 int_ex_flow_2_39,4,1_ <= 1
c3197: 1 int_ex_flow_2_39,1,2_ <= 1
c3198: -1 int_ex_flow_2_39,1,2_ <= 1
c3199: 1 int_ex_flow_2_39,2,2_ <= 1
c3200: -1 int_ex_flow_2_39,2,2_ <= 1
c3201: 1 int_ex_flow_2_39,3,2_ <= 1
c3202: -1 int_ex_flow_2_39,3,2_ <= 1
c3203: 1 int_ex_flow_2_39,4,2_ <= 1
c3204: -1 int_ex_flow_2_39,4,2_ <= 1
c3205: 1 int_ex_flow_2_40,1,1_ <= 1
c3206: -1 int_ex_flow_2_40,1,1_ <= 1
c3207: 1 int_ex_flow_2_40,2,1_ <= 1
c3208: -1 int_ex_flow_2_40,2,1_ <= 1
c3209: 1 int_ex_flow_2_40,3,1_ <= 1
c3210: -1 int_ex_flow_2_40,3,1_ <= 1
c3211: 1 int_ex_flow_2_40,4,1_ <= 1
c3212: -1 int_ex_flow_2_40,4,1_ <= 1
c3213: 1 int_ex_flow_2_40,1,2_ <= 1
c3214: -1 int_ex_flow_2_40,1,2_ <= 1
c3215: 1 int_ex_flow_2_40,2,2_ <= 1
c3216: -1 int_ex_flow_2_40,2,2_ <= 1
c3217: 1 int_ex_flow_2_40,3,2_ <= 1
c3218: -1 int_ex_flow_2_40,3,2_ <= 1
c3219: 1 int_ex_flow_2_40,4,2_ <= 1
c3220: -1 int_ex_flow_2_40,4,2_ <= 1
c3221: 1 int_ex_flow_2_41,1,1_ <= 1
c3222: -1 int_ex_flow_2_41,1,1_ <= 1
c3223: 1 int_ex_flow_2_41,2,1_ <= 1
c3224: -1 int_ex_flow_2_41,2,1_ <= 1
c3225: 1 int_ex_flow_2_41,3,1_ <= 1
c3226: -1 int_ex_flow_2_41,3,1_ <= 1
c3227: 1 int_ex_flow_2_41,4,1_ <= 1
c3228: -1 int_ex_flow_2_41,4,1_ <= 1
c3229: 1 int_ex_flow_2_41,1,2_ <= 1
c3230: -1 int_ex_flow_2_41,1,2_ <= 1
c3231: 1 int_ex_flow_2_41,2,2_ <= 1
c3232: -1 int_ex_flow_2_41,2,2_ <= 1
c3233: 1 int_ex_flow_2_41,3,2_ <= 1
c3234: -1 int_ex_flow_2_41,3,2_ <= 1
c3235: 1 int_ex_flow_2_41,4,2_ <= 1
c3236: -1 int_ex_flow_2_41,4,2_ <= 1
c3237: 1 int_ex_flow_3_1,1,1_ <= 1
c3238: -1 int_ex_flow_3_1,1,1_ <= 1
c3239: 1 int_ex_flow_3_1,2,1_ <= 1
c3240: -1 int_ex_flow_3_1,2,1_ <= 1
c3241: 1 int_ex_flow_3_1,3,1_ <= 1
c3242: -1 int_ex_flow_3_1,3,1_ <= 1
c3243: 1 int_ex_flow_3_1,4,1_ <= 1
c3244: -1 int_ex_flow_3_1,4,1_ <= 1
c3245: 1 int_ex_flow_3_1,1,2_ <= 1
c3246: -1 int_ex_flow_3_1,1,2_ <= 1
c3247: 1 int_ex_flow_3_1,2,2_ <= 1
c3248: -1 int_ex_flow_3_1,2,2_ <= 1
c3249: 1 int_ex_flow_3_1,3,2_ <= 1
c3250: -1 int_ex_flow_3_1,3,2_ <= 1
c3251: 1 int_ex_flow_3_1,4,2_ <= 1
c3252: -1 int_ex_flow_3_1,4,2_ <= 1
c3253: 1 int_ex_flow_3_2,1,1_ <= 1
c3254: -1 int_ex_flow_3_2,1,1_ <= 1
c3255: 1 int_ex_flow_3_2,2,1_ <= 1
c3256: -1 int_ex_flow_3_2,2,1_ <= 1
c3257: 1 int_ex_flow_3_2,3,1_ <= 1
c3258: -1 int_ex_flow_3_2,3,1_ <= 1
c3259: 1 int_ex_flow_3_2,4,1_ <= 1
c3260: -1 int_ex_flow_3_2,4,1_ <= 1
c3261: 1 int_ex_flow_3_2,1,2_ <= 1
c3262: -1 int_ex_flow_3_2,1,2_ <= 1
c3263: 1 int_ex_flow_3_2,2,2_ <= 1
c3264: -1 int_ex_flow_3_2,2,2_ <= 1
c3265: 1 int_ex_flow_3_2,3,2_ <= 1
c3266: -1 int_ex_flow_3_2,3,2_ <= 1
c3267: 1 int_ex_flow_3_2,4,2_ <= 1
c3268: -1 int_ex_flow_3_2,4,2_ <= 1
c3269: 1 int_ex_flow_3_3,1,1_ <= 1
c3270: -1 int_ex_flow_3_3,1,1_ <= 1
c3271: 1 int_ex_flow_3_3,2,1_ <= 1
c3272: -1 int_ex_flow_3_3,2,1_ <= 1
c3273: 1 int_ex_flow_3_3,3,1_ <= 1
c3274: -1 int_ex_flow_3_3,3,1_ <= 1
c3275: 1 int_ex_flow_3_3,4,1_ <= 1
c3276: -1 int_ex_flow_3_3,4,1_ <= 1
c3277: 1 int_ex_flow_3_3,1,2_ <= 1
c3278: -1 int_ex_flow_3_3,1,2_ <= 1
c3279: 1 int_ex_flow_3_3,2,2_ <= 1
c3280: -1 int_ex_flow_3_3,2,2_ <= 1
c3281: 1 int_ex_flow_3_3,3,2_ <= 1
c3282: -1 int_ex_flow_3_3,3,2_ <= 1
c3283: 1 int_ex_flow_3_3,4,2_ <= 1
c3284: -1 int_ex_flow_3_3,4,2_ <= 1
c3285: 1 int_ex_flow_3_4,1,1_ <= 1
c3286: -1 int_ex_flow_3_4,1,1_ <= 1
c3287: 1 int_ex_flow_3_4,2,1_ <= 1
c3288: -1 int_ex_flow_3_4,2,1_ <= 1
c3289: 1 int_ex_flow_3_4,3,1_ <= 1
c3290: -1 int_ex_flow_3_4,3,1_ <= 1
c3291: 1 int_ex_flow_3_4,4,1_ <= 1
c3292: -1 int_ex_flow_3_4,4,1_ <= 1
c3293: 1 int_ex_flow_3_4,1,2_ <= 1
c3294: -1 int_ex_flow_3_4,1,2_ <= 1
c3295: 1 int_ex_flow_3_4,2,2_ <= 1
c3296: -1 int_ex_flow_3_4,2,2_ <= 1
c3297: 1 int_ex_flow_3_4,3,2_ <= 1
c3298: -1 int_ex_flow_3_4,3,2_ <= 1
c3299: 1 int_ex_flow_3_4,4,2_ <= 1
c3300: -1 int_ex_flow_3_4,4,2_ <= 1
c3301: 1 int_ex_flow_3_5,1,1_ <= 1
c3302: -1 int_ex_flow_3_5,1,1_ <= 1
c3303: 1 int_ex_flow_3_5,2,1_ <= 1
c3304: -1 int_ex_flow_3_5,2,1_ <= 1
c3305: 1 int_ex_flow_3_5,3,1_ <= 1
c3306: -1 int_ex_flow_3_5,3,1_ <= 1
c3307: 1 int_ex_flow_3_5,4,1_ <= 1
c3308: -1 int_ex_flow_3_5,4,1_ <= 1
c3309: 1 int_ex_flow_3_5,1,2_ <= 1
c3310: -1 int_ex_flow_3_5,1,2_ <= 1
c3311: 1 int_ex_flow_3_5,2,2_ <= 1
c3312: -1 int_ex_flow_3_5,2,2_ <= 1
c3313: 1 int_ex_flow_3_5,3,2_ <= 1
c3314: -1 int_ex_flow_3_5,3,2_ <= 1
c3315: 1 int_ex_flow_3_5,4,2_ <= 1
c3316: -1 int_ex_flow_3_5,4,2_ <= 1
c3317: 1 int_ex_flow_3_6,1,1_ <= 1
c3318: -1 int_ex_flow_3_6,1,1_ <= 1
c3319: 1 int_ex_flow_3_6,2,1_ <= 1
c3320: -1 int_ex_flow_3_6,2,1_ <= 1
c3321: 1 int_ex_flow_3_6,3,1_ <= 1
c3322: -1 int_ex_flow_3_6,3,1_ <= 1
c3323: 1 int_ex_flow_3_6,4,1_ <= 1
c3324: -1 int_ex_flow_3_6,4,1_ <= 1
c3325: 1 int_ex_flow_3_6,1,2_ <= 1
c3326: -1 int_ex_flow_3_6,1,2_ <= 1
c3327: 1 int_ex_flow_3_6,2,2_ <= 1
c3328: -1 int_ex_flow_3_6,2,2_ <= 1
c3329: 1 int_ex_flow_3_6,3,2_ <= 1
c3330: -1 int_ex_flow_3_6,3,2_ <= 1
c3331: 1 int_ex_flow_3_6,4,2_ <= 1
c3332: -1 int_ex_flow_3_6,4,2_ <= 1
c3333: 1 int_ex_flow_3_7,1,1_ <= 1
c3334: -1 int_ex_flow_3_7,1,1_ <= 1
c3335: 1 int_ex_flow_3_7,2,1_ <= 1
c3336: -1 int_ex_flow_3_7,2,1_ <= 1
c3337: 1 int_ex_flow_3_7,3,1_ <= 1
c3338: -1 int_ex_flow_3_7,3,1_ <= 1
c3339: 1 int_ex_flow_3_7,4,1_ <= 1
c3340: -1 int_ex_flow_3_7,4,1_ <= 1
c3341: 1 int_ex_flow_3_7,1,2_ <= 1
c3342: -1 int_ex_flow_3_7,1,2_ <= 1
c3343: 1 int_ex_flow_3_7,2,2_ <= 1
c3344: -1 int_ex_flow_3_7,2,2_ <= 1
c3345: 1 int_ex_flow_3_7,3,2_ <= 1
c3346: -1 int_ex_flow_3_7,3,2_ <= 1
c3347: 1 int_ex_flow_3_7,4,2_ <= 1
c3348: -1 int_ex_flow_3_7,4,2_ <= 1
c1_1: -1 gen_var_1_1,1,1_ + 1 gen_var_1_1,1,2_ >= -1
c2_1: -1 gen_var_1_1,2,1_ + 1 gen_var_1_1,2,2_ >= -1
c3_1: -1 gen_var_1_1,3,1_ + 1 gen_var_1_1,3,2_ >= -1
c4_1: -1 gen_var_1_1,4,1_ + 1 gen_var_1_1,4,2_ >= -1
c5_1: -1 gen_var_1_2,1,1_ + 1 gen_var_1_2,1,2_ >= -1
c6_1: -1 gen_var_1_2,2,1_ + 1 gen_var_1_2,2,2_ >= -1
c7_1: -1 gen_var_1_2,3,1_ + 1 gen_var_1_2,3,2_ >= -1
c8_1: -1 gen_var_1_2,4,1_ + 1 gen_var_1_2,4,2_ >= -1
c9_1:  >= 0
c10_1:  >= 0
c11_1:  >= 0
c12_1:  >= 0
c13_1:  >= 0
c14_1:  >= 0
c15_1:  >= 0
c16_1:  >= 0
c17_1:  >= 0
c18_1:  >= 0
c19_1:  >= 0
c20_1:  >= 0
c21_1:  >= 0
c22_1:  >= 0
c23_1:  >= 0
c24_1:  >= 0
c25_1:  >= 0
c26_1:  >= 0
c27_1:  >= 0
c28_1:  >= 0
c29_1:  >= 0
c30_1:  >= 0
c31_1:  >= 0
c32_1:  >= 0
c33_1:  >= 0
c34_1:  >= 0
c35_1:  >= 0
c36_1:  >= 0
c37_1:  >= 0
c38_1:  >= 0
c39_1:  >= 0
c40_1:  >= 0
c41_1:  >= 0
c42_1:  >= 0
c43_1:  >= 0
c44_1:  >= 0
c45_1:  >= 0
c46_1:  >= 0
c47_1:  >= 0
c48_1:  >= 0
c49_1:  >= 0
c50_1:  >= 0
c51_1:  >= 0
c52_1:  >= 0
c53_1:  >= 0
c54_1:  >= 0
c55_1:  >= 0
c56_1:  >= 0
c57_1: -1 gen_var_2_1,1,1_ + 1 gen_var_2_1,1,2_ >= -1
c58_1: -1 gen_var_2_1,2,1_ + 1 gen_var_2_1,2,2_ >= -1
c59_1: -1 gen_var_2_1,3,1_ + 1 gen_var_2_1,3,2_ >= -1
c60_1: -1 gen_var_2_1,4,1_ + 1 gen_var_2_1,4,2_ >= -1
c61_1: -1 gen_var_2_2,1,1_ + 1 gen_var_2_2,1,2_ >= -1
c62_1: -1 gen_var_2_2,2,1_ + 1 gen_var_2_2,2,2_ >= -1
c63_1: -1 gen_var_2_2,3,1_ + 1 gen_var_2_2,3,2_ >= -1
c64_1: -1 gen_var_2_2,4,1_ + 1 gen_var_2_2,4,2_ >= -1
c65_1:  >= 0
c66_1:  >= 0
c67_1:  >= 0
c68_1:  >= 0
c69_1:  >= 0
c70_1:  >= 0
c71_1:  >= 0
c72_1:  >= 0
c73_1:  >= 0
c74_1:  >= 0
c75_1:  >= 0
c76_1:  >= 0
c77_1:  >= 0
c78_1:  >= 0
c79_1:  >= 0
c80_1:  >= 0
c81_1:  >= 0
c82_1:  >= 0
c83_1:  >= 0
c84_1:  >= 0
c85_1:  >= 0
c86_1:  >= 0
c87_1:  >= 0
c88_1:  >= 0
c89_1:  >= 0
c90_1:  >= 0
c91_1:  >= 0
c92_1:  >= 0
c93_1:  >= 0
c94_1:  >= 0
c95_1:  >= 0
c96_1:  >= 0
c97_1:  >= 0
c98_1:  >= 0
c99_1:  >= 0
c100_1:  >= 0
c101_1:  >= 0
c102_1:  >= 0
c103_1:  >= 0
c104_1:  >= 0
c105_1: -1 gen_var_2_13,1,1_ + 1 gen_var_2_13,1,2_ >= -1
c106_1: -1 gen_var_2_13,2,1_ + 1 gen_var_2_13,2,2_ >= -1
c107_1: -1 gen_var_2_13,3,1_ + 1 gen_var_2_13,3,2_ >= -1
c108_1: -1 gen_var_2_13,4,1_ + 1 gen_var_2_13,4,2_ >= -1
c109_1:  >= 0
c110_1:  >= 0
c111_1:  >= 0
c112_1:  >= 0
c113_1:  >= 0
c114_1:  >= 0
c115_1:  >= 0
c116_1:  >= 0
c117_1:  >= 0
c118_1:  >= 0
c119_1:  >= 0
c120_1:  >= 0
c121_1:  >= 0
c122_1:  >= 0
c123_1:  >= 0
c124_1:  >= 0
c125_1:  >= 0
c126_1:  >= 0
c127_1:  >= 0
c128_1:  >= 0
c129_1:  >= 0
c130_1:  >= 0
c131_1:  >= 0
c132_1:  >= 0
c133_1:  >= 0
c134_1:  >= 0
c135_1:  >= 0
c136_1:  >= 0
c137_1:  >= 0
c138_1:  >= 0
c139_1:  >= 0
c140_1:  >= 0
c141_1: -1 gen_var_2_22,1,1_ + 1 gen_var_2_22,1,2_ >= -1
c142_1: -1 gen_var_2_22,2,1_ + 1 gen_var_2_22,2,2_ >= -1
c143_1: -1 gen_var_2_22,3,1_ + 1 gen_var_2_22,3,2_ >= -1
c144_1: -1 gen_var_2_22,4,1_ + 1 gen_var_2_22,4,2_ >= -1
c145_1: -1 gen_var_2_23,1,1_ + 1 gen_var_2_23,1,2_ >= -1
c146_1: -1 gen_var_2_23,2,1_ + 1 gen_var_2_23,2,2_ >= -1
c147_1: -1 gen_var_2_23,3,1_ + 1 gen_var_2_23,3,2_ >= -1
c148_1: -1 gen_var_2_23,4,1_ + 1 gen_var_2_23,4,2_ >= -1
c149_1:  >= 0
c150_1:  >= 0
c151_1:  >= 0
c152_1:  >= 0
c153_1:  >= 0
c154_1:  >= 0
c155_1:  >= 0
c156_1:  >= 0
c157_1:  >= 0
c158_1:  >= 0
c159_1:  >= 0
c160_1:  >= 0
c161_1: -1 gen_var_2_27,1,1_ + 1 gen_var_2_27,1,2_ >= -1
c162_1: -1 gen_var_2_27,2,1_ + 1 gen_var_2_27,2,2_ >= -1
c163_1: -1 gen_var_2_27,3,1_ + 1 gen_var_2_27,3,2_ >= -1
c164_1: -1 gen_var_2_27,4,1_ + 1 gen_var_2_27,4,2_ >= -1
c165_1:  >= 0
c166_1:  >= 0
c167_1:  >= 0
c168_1:  >= 0
c169_1:  >= 0
c170_1:  >= 0
c171_1:  >= 0
c172_1:  >= 0
c173_1:  >= 0
c174_1:  >= 0
c175_1:  >= 0
c176_1:  >= 0
c177_1: -1 gen_var_3_1,1,1_ + 1 gen_var_3_1,1,2_ >= -1
c178_1: -1 gen_var_3_1,2,1_ + 1 gen_var_3_1,2,2_ >= -1
c179_1: -1 gen_var_3_1,3,1_ + 1 gen_var_3_1,3,2_ >= -1
c180_1: -1 gen_var_3_1,4,1_ + 1 gen_var_3_1,4,2_ >= -1
c181_1: -1 gen_var_3_2,1,1_ + 1 gen_var_3_2,1,2_ >= -1
c182_1: -1 gen_var_3_2,2,1_ + 1 gen_var_3_2,2,2_ >= -1
c183_1: -1 gen_var_3_2,3,1_ + 1 gen_var_3_2,3,2_ >= -1
c184_1: -1 gen_var_3_2,4,1_ + 1 gen_var_3_2,4,2_ >= -1
c185_1:  >= 0
c186_1:  >= 0
c187_1:  >= 0
c188_1:  >= 0
c189_1:  >= 0
c190_1:  >= 0
c191_1:  >= 0
c192_1:  >= 0
c193_1:  >= 0
c194_1:  >= 0
c195_1:  >= 0
c196_1:  >= 0
c1: 1 gen_var_1_1,1,1_ - 1 shared_cand_flow_1,1,1_ + 1 int_cand_flow_1_4,1,1_ - 1 int_cand_flow_1_5,1,1_ - 1 int_cand_flow_1_7,1,1_ + 1 int_cand_flow_1_10,1,1_ + 1 shared_ex_flow_5,1,1_ - 1 int_ex_flow_1_1,1,1_ - 1 int_ex_flow_1_2,1,1_ = 0
c2: 1 gen_var_1_1,2,1_ - 1 shared_cand_flow_1,2,1_ + 1 int_cand_flow_1_4,2,1_ - 1 int_cand_flow_1_5,2,1_ - 1 int_cand_flow_1_7,2,1_ + 1 int_cand_flow_1_10,2,1_ + 1 shared_ex_flow_5,2,1_ - 1 int_ex_flow_1_1,2,1_ - 1 int_ex_flow_1_2,2,1_ = 0
c3: 1 gen_var_1_1,3,1_ - 1 shared_cand_flow_1,3,1_ + 1 int_cand_flow_1_4,3,1_ - 1 int_cand_flow_1_5,3,1_ - 1 int_cand_flow_1_7,3,1_ + 1 int_cand_flow_1_10,3,1_ + 1 shared_ex_flow_5,3,1_ - 1 int_ex_flow_1_1,3,1_ - 1 int_ex_flow_1_2,3,1_ = 0
c4: 1 gen_var_1_1,4,1_ - 1 shared_cand_flow_1,4,1_ + 1 int_cand_flow_1_4,4,1_ - 1 int_cand_flow_1_5,4,1_ - 1 int_cand_flow_1_7,4,1_ + 1 int_cand_flow_1_10,4,1_ + 1 shared_ex_flow_5,4,1_ - 1 int_ex_flow_1_1,4,1_ - 1 int_ex_flow_1_2,4,1_ = 0
c5: 1 gen_var_1_1,1,2_ - 1 shared_cand_flow_1,1,2_ + 1 int_cand_flow_1_4,1,2_ - 1 int_cand_flow_1_5,1,2_ - 1 int_cand_flow_1_7,1,2_ + 1 int_cand_flow_1_10,1,2_ + 1 shared_ex_flow_5,1,2_ - 1 int_ex_flow_1_1,1,2_ - 1 int_ex_flow_1_2,1,2_ = 0
c6: 1 gen_var_1_1,2,2_ - 1 shared_cand_flow_1,2,2_ + 1 int_cand_flow_1_4,2,2_ - 1 int_cand_flow_1_5,2,2_ - 1 int_cand_flow_1_7,2,2_ + 1 int_cand_flow_1_10,2,2_ + 1 shared_ex_flow_5,2,2_ - 1 int_ex_flow_1_1,2,2_ - 1 int_ex_flow_1_2,2,2_ = 0
c7: 1 gen_var_1_1,3,2_ - 1 shared_cand_flow_1,3,2_ + 1 int_cand_flow_1_4,3,2_ - 1 int_cand_flow_1_5,3,2_ - 1 int_cand_flow_1_7,3,2_ + 1 int_cand_flow_1_10,3,2_ + 1 shared_ex_flow_5,3,2_ - 1 int_ex_flow_1_1,3,2_ - 1 int_ex_flow_1_2,3,2_ = 0
c8: 1 gen_var_1_1,4,2_ - 1 shared_cand_flow_1,4,2_ + 1 int_cand_flow_1_4,4,2_ - 1 int_cand_flow_1_5,4,2_ - 1 int_cand_flow_1_7,4,2_ + 1 int_cand_flow_1_10,4,2_ + 1 shared_ex_flow_5,4,2_ - 1 int_ex_flow_1_1,4,2_ - 1 int_ex_flow_1_2,4,2_ = 0
c9: 1 gen_var_1_2,1,1_ + 1 shared_cand_flow_1,1,1_ + 1 shared_cand_flow_2,1,1_ + 1 int_cand_flow_1_3,1,1_ - 1 int_cand_flow_1_4,1,1_ - 1 int_cand_flow_1_8,1,1_ + 1 int_ex_flow_1_1,1,1_ - 1 int_ex_flow_1_3,1,1_ - 1 int_ex_flow_1_4,1,1_ - 1 int_ex_flow_1_5,1,1_ = 0.11310339363117812
c10: 1 gen_var_1_2,2,1_ + 1 shared_cand_flow_1,2,1_ + 1 shared_cand_flow_2,2,1_ + 1 int_cand_flow_1_3,2,1_ - 1 int_cand_flow_1_4,2,1_ - 1 int_cand_flow_1_8,2,1_ + 1 int_ex_flow_1_1,2,1_ - 1 int_ex_flow_1_3,2,1_ - 1 int_ex_flow_1_4,2,1_ - 1 int_ex_flow_1_5,2,1_ = 0.09666033874306673
c11: 1 gen_var_1_2,3,1_ + 1 shared_cand_flow_1,3,1_ + 1 shared_cand_flow_2,3,1_ + 1 int_cand_flow_1_3,3,1_ - 1 int_cand_flow_1_4,3,1_ - 1 int_cand_flow_1_8,3,1_ + 1 int_ex_flow_1_1,3,1_ - 1 int_ex_flow_1_3,3,1_ - 1 int_ex_flow_1_4,3,1_ - 1 int_ex_flow_1_5,3,1_ = 0.0855515542234682
c12: 1 gen_var_1_2,4,1_ + 1 shared_cand_flow_1,4,1_ + 1 shared_cand_flow_2,4,1_ + 1 int_cand_flow_1_3,4,1_ - 1 int_cand_flow_1_4,4,1_ - 1 int_cand_flow_1_8,4,1_ + 1 int_ex_flow_1_1,4,1_ - 1 int_ex_flow_1_3,4,1_ - 1 int_ex_flow_1_4,4,1_ - 1 int_ex_flow_1_5,4,1_ = 0.002431376772198893
c13: 1 gen_var_1_2,1,2_ + 1 shared_cand_flow_1,1,2_ + 1 shared_cand_flow_2,1,2_ + 1 int_cand_flow_1_3,1,2_ - 1 int_cand_flow_1_4,1,2_ - 1 int_cand_flow_1_8,1,2_ + 1 int_ex_flow_1_1,1,2_ - 1 int_ex_flow_1_3,1,2_ - 1 int_ex_flow_1_4,1,2_ - 1 int_ex_flow_1_5,1,2_ = 0.1273370663673766
c14: 1 gen_var_1_2,2,2_ + 1 shared_cand_flow_1,2,2_ + 1 shared_cand_flow_2,2,2_ + 1 int_cand_flow_1_3,2,2_ - 1 int_cand_flow_1_4,2,2_ - 1 int_cand_flow_1_8,2,2_ + 1 int_ex_flow_1_1,2,2_ - 1 int_ex_flow_1_3,2,2_ - 1 int_ex_flow_1_4,2,2_ - 1 int_ex_flow_1_5,2,2_ = 0.02071337684429527
c15: 1 gen_var_1_2,3,2_ + 1 shared_cand_flow_1,3,2_ + 1 shared_cand_flow_2,3,2_ + 1 int_cand_flow_1_3,3,2_ - 1 int_cand_flow_1_4,3,2_ - 1 int_cand_flow_1_8,3,2_ + 1 int_ex_flow_1_1,3,2_ - 1 int_ex_flow_1_3,3,2_ - 1 int_ex_flow_1_4,3,2_ - 1 int_ex_flow_1_5,3,2_ = 0.06356824182645125
c16: 1 gen_var_1_2,4,2_ + 1 shared_cand_flow_1,4,2_ + 1 shared_cand_flow_2,4,2_ + 1 int_cand_flow_1_3,4,2_ - 1 int_cand_flow_1_4,4,2_ - 1 int_cand_flow_1_8,4,2_ + 1 int_ex_flow_1_1,4,2_ - 1 int_ex_flow_1_3,4,2_ - 1 int_ex_flow_1_4,4,2_ - 1 int_ex_flow_1_5,4,2_ = 0.0506344158347862
c17: -1 int_cand_flow_1_3,1,1_ + 1 int_ex_flow_1_3,1,1_ - 1 int_ex_flow_1_6,1,1_ = 0.5468875029258178
c18: -1 int_cand_flow_1_3,2,1_ + 1 int_ex_flow_1_3,2,1_ - 1 int_ex_flow_1_6,2,1_ = 0.24821507775338061
c19: -1 int_cand_flow_1_3,3,1_ + 1 int_ex_flow_1_3,3,1_ - 1 int_ex_flow_1_6,3,1_ = 0.028900185103564787
c20: -1 int_cand_flow_1_3,4,1_ + 1 int_ex_flow_1_3,4,1_ - 1 int_ex_flow_1_6,4,1_ = 0.08540391637154318
c21: -1 int_cand_flow_1_3,1,2_ + 1 int_ex_flow_1_3,1,2_ - 1 int_ex_flow_1_6,1,2_ = 0.30825808225941914
c22: -1 int_cand_flow_1_3,2,2_ + 1 int_ex_flow_1_3,2,2_ - 1 int_ex_flow_1_6,2,2_ = 0.3938636588495632
c23: -1 int_cand_flow_1_3,3,2_ + 1 int_ex_flow_1_3,3,2_ - 1 int_ex_flow_1_6,3,2_ = 0.3286648635518336
c24: -1 int_cand_flow_1_3,4,2_ + 1 int_ex_flow_1_3,4,2_ - 1 int_ex_flow_1_6,4,2_ = 0.024069184828102864
c25: 1 shared_cand_flow_3,1,1_ + 1 int_cand_flow_1_1,1,1_ - 1 int_cand_flow_1_2,1,1_ + 1 int_cand_flow_1_5,1,1_ - 1 shared_ex_flow_4,1,1_ + 1 int_ex_flow_1_4,1,1_ + 1 int_ex_flow_1_6,1,1_ - 1 int_ex_flow_1_7,1,1_ - 1 int_ex_flow_1_8,1,1_ - 1 int_ex_flow_1_9,1,1_ = 0.3442090234363775
c26: 1 shared_cand_flow_3,2,1_ + 1 int_cand_flow_1_1,2,1_ - 1 int_cand_flow_1_2,2,1_ + 1 int_cand_flow_1_5,2,1_ - 1 shared_ex_flow_4,2,1_ + 1 int_ex_flow_1_4,2,1_ + 1 int_ex_flow_1_6,2,1_ - 1 int_ex_flow_1_7,2,1_ - 1 int_ex_flow_1_8,2,1_ - 1 int_ex_flow_1_9,2,1_ = 0.15880796641573597
c27: 1 shared_cand_flow_3,3,1_ + 1 int_cand_flow_1_1,3,1_ - 1 int_cand_flow_1_2,3,1_ + 1 int_cand_flow_1_5,3,1_ - 1 shared_ex_flow_4,3,1_ + 1 int_ex_flow_1_4,3,1_ + 1 int_ex_flow_1_6,3,1_ - 1 int_ex_flow_1_7,3,1_ - 1 int_ex_flow_1_8,3,1_ - 1 int_ex_flow_1_9,3,1_ = 0.09916018445372554
c28: 1 shared_cand_flow_3,4,1_ + 1 int_cand_flow_1_1,4,1_ - 1 int_cand_flow_1_2,4,1_ + 1 int_cand_flow_1_5,4,1_ - 1 shared_ex_flow_4,4,1_ + 1 int_ex_flow_1_4,4,1_ + 1 int_ex_flow_1_6,4,1_ - 1 int_ex_flow_1_7,4,1_ - 1 int_ex_flow_1_8,4,1_ - 1 int_ex_flow_1_9,4,1_ = 0.10526725015248888
c29: 1 shared_cand_flow_3,1,2_ + 1 int_cand_flow_1_1,1,2_ - 1 int_cand_flow_1_2,1,2_ + 1 int_cand_flow_1_5,1,2_ - 1 shared_ex_flow_4,1,2_ + 1 int_ex_flow_1_4,1,2_ + 1 int_ex_flow_1_6,1,2_ - 1 int_ex_flow_1_7,1,2_ - 1 int_ex_flow_1_8,1,2_ - 1 int_ex_flow_1_9,1,2_ = 0.2741899979000095
c30: 1 shared_cand_flow_3,2,2_ + 1 int_cand_flow_1_1,2,2_ - 1 int_cand_flow_1_2,2,2_ + 1 int_cand_flow_1_5,2,2_ - 1 shared_ex_flow_4,2,2_ + 1 int_ex_flow_1_4,2,2_ + 1 int_ex_flow_1_6,2,2_ - 1 int_ex_flow_1_7,2,2_ - 1 int_ex_flow_1_8,2,2_ - 1 int_ex_flow_1_9,2,2_ = 0.07059259463639711
c31: 1 shared_cand_flow_3,3,2_ + 1 int_cand_flow_1_1,3,2_ - 1 int_cand_flow_1_2,3,2_ + 1 int_cand_flow_1_5,3,2_ - 1 shared_ex_flow_4,3,2_ + 1 int_ex_flow_1_4,3,2_ + 1 int_ex_flow_1_6,3,2_ - 1 int_ex_flow_1_7,3,2_ - 1 int_ex_flow_1_8,3,2_ - 1 int_ex_flow_1_9,3,2_ = 0.3525617024364626
c32: 1 shared_cand_flow_3,4,2_ + 1 int_cand_flow_1_1,4,2_ - 1 int_cand_flow_1_2,4,2_ + 1 int_cand_flow_1_5,4,2_ - 1 shared_ex_flow_4,4,2_ + 1 int_ex_flow_1_4,4,2_ + 1 int_ex_flow_1_6,4,2_ - 1 int_ex_flow_1_7,4,2_ - 1 int_ex_flow_1_8,4,2_ - 1 int_ex_flow_1_9,4,2_ = 0.027965008289999576
c33: -1 shared_cand_flow_2,1,1_ - 1 int_cand_flow_1_1,1,1_ + 1 shared_ex_flow_4,1,1_ + 1 int_ex_flow_1_2,1,1_ + 1 int_ex_flow_1_5,1,1_ + 1 int_ex_flow_1_7,1,1_ - 1 int_ex_flow_1_10,1,1_ = 0.028952152825744256
c34: -1 shared_cand_flow_2,2,1_ - 1 int_cand_flow_1_1,2,1_ + 1 shared_ex_flow_4,2,1_ + 1 int_ex_flow_1_2,2,1_ + 1 int_ex_flow_1_5,2,1_ + 1 int_ex_flow_1_7,2,1_ - 1 int_ex_flow_1_10,2,1_ = 0.00335505872702658
c35: -1 shared_cand_flow_2,3,1_ - 1 int_cand_flow_1_1,3,1_ + 1 shared_ex_flow_4,3,1_ + 1 int_ex_flow_1_2,3,1_ + 1 int_ex_flow_1_5,3,1_ + 1 int_ex_flow_1_7,3,1_ - 1 int_ex_flow_1_10,3,1_ = 0.026425755426520117
c36: -1 shared_cand_flow_2,4,1_ - 1 int_cand_flow_1_1,4,1_ + 1 shared_ex_flow_4,4,1_ + 1 int_ex_flow_1_2,4,1_ + 1 int_ex_flow_1_5,4,1_ + 1 int_ex_flow_1_7,4,1_ - 1 int_ex_flow_1_10,4,1_ = 0.003912573280247489
c37: -1 shared_cand_flow_2,1,2_ - 1 int_cand_flow_1_1,1,2_ + 1 shared_ex_flow_4,1,2_ + 1 int_ex_flow_1_2,1,2_ + 1 int_ex_flow_1_5,1,2_ + 1 int_ex_flow_1_7,1,2_ - 1 int_ex_flow_1_10,1,2_ = 0.010027723673001965
c38: -1 shared_cand_flow_2,2,2_ - 1 int_cand_flow_1_1,2,2_ + 1 shared_ex_flow_4,2,2_ + 1 int_ex_flow_1_2,2,2_ + 1 int_ex_flow_1_5,2,2_ + 1 int_ex_flow_1_7,2,2_ - 1 int_ex_flow_1_10,2,2_ = 0.011913186751293691
c39: -1 shared_cand_flow_2,3,2_ - 1 int_cand_flow_1_1,3,2_ + 1 shared_ex_flow_4,3,2_ + 1 int_ex_flow_1_2,3,2_ + 1 int_ex_flow_1_5,3,2_ + 1 int_ex_flow_1_7,3,2_ - 1 int_ex_flow_1_10,3,2_ = 0.04067724758171385
c40: -1 shared_cand_flow_2,4,2_ - 1 int_cand_flow_1_1,4,2_ + 1 shared_ex_flow_4,4,2_ + 1 int_ex_flow_1_2,4,2_ + 1 int_ex_flow_1_5,4,2_ + 1 int_ex_flow_1_7,4,2_ - 1 int_ex_flow_1_10,4,2_ = 0.0017204721201378322
c41: 1 int_cand_flow_1_7,1,1_ + 1 int_ex_flow_1_10,1,1_ - 1 int_ex_flow_1_11,1,1_ - 1 int_ex_flow_1_12,1,1_ - 1 int_ex_flow_1_13,1,1_ = 0.0651741823474163
c42: 1 int_cand_flow_1_7,2,1_ + 1 int_ex_flow_1_10,2,1_ - 1 int_ex_flow_1_11,2,1_ - 1 int_ex_flow_1_12,2,1_ - 1 int_ex_flow_1_13,2,1_ = 0.006784261149015108
c43: 1 int_cand_flow_1_7,3,1_ + 1 int_ex_flow_1_10,3,1_ - 1 int_ex_flow_1_11,3,1_ - 1 int_ex_flow_1_12,3,1_ - 1 int_ex_flow_1_13,3,1_ = 0.03248197368435211
c44: 1 int_cand_flow_1_7,4,1_ + 1 int_ex_flow_1_10,4,1_ - 1 int_ex_flow_1_11,4,1_ - 1 int_ex_flow_1_12,4,1_ - 1 int_ex_flow_1_13,4,1_ = 0.002021060263639391
c45: 1 int_cand_flow_1_7,1,2_ + 1 int_ex_flow_1_10,1,2_ - 1 int_ex_flow_1_11,1,2_ - 1 int_ex_flow_1_12,1,2_ - 1 int_ex_flow_1_13,1,2_ = 0.03488212007896592
c46: 1 int_cand_flow_1_7,2,2_ + 1 int_ex_flow_1_10,2,2_ - 1 int_ex_flow_1_11,2,2_ - 1 int_ex_flow_1_12,2,2_ - 1 int_ex_flow_1_13,2,2_ = 0.011453669769940129
c47: 1 int_cand_flow_1_7,3,2_ + 1 int_ex_flow_1_10,3,2_ - 1 int_ex_flow_1_11,3,2_ - 1 int_ex_flow_1_12,3,2_ - 1 int_ex_flow_1_13,3,2_ = 0.0015600479655548335
c48: 1 int_cand_flow_1_7,4,2_ + 1 int_ex_flow_1_10,4,2_ - 1 int_ex_flow_1_11,4,2_ - 1 int_ex_flow_1_12,4,2_ - 1 int_ex_flow_1_13,4,2_ = 0.025598904406426207
c49: -1 int_cand_flow_1_6,1,1_ + 1 shared_ex_flow_1,1,1_ + 1 int_ex_flow_1_8,1,1_ - 1 int_ex_flow_1_14,1,1_ - 1 int_ex_flow_1_15,1,1_ = 0
c50: -1 int_cand_flow_1_6,2,1_ + 1 shared_ex_flow_1,2,1_ + 1 int_ex_flow_1_8,2,1_ - 1 int_ex_flow_1_14,2,1_ - 1 int_ex_flow_1_15,2,1_ = 0
c51: -1 int_cand_flow_1_6,3,1_ + 1 shared_ex_flow_1,3,1_ + 1 int_ex_flow_1_8,3,1_ - 1 int_ex_flow_1_14,3,1_ - 1 int_ex_flow_1_15,3,1_ = 0
c52: -1 int_cand_flow_1_6,4,1_ + 1 shared_ex_flow_1,4,1_ + 1 int_ex_flow_1_8,4,1_ - 1 int_ex_flow_1_14,4,1_ - 1 int_ex_flow_1_15,4,1_ = 0
c53: -1 int_cand_flow_1_6,1,2_ + 1 shared_ex_flow_1,1,2_ + 1 int_ex_flow_1_8,1,2_ - 1 int_ex_flow_1_14,1,2_ - 1 int_ex_flow_1_15,1,2_ = 0
c54: -1 int_cand_flow_1_6,2,2_ + 1 shared_ex_flow_1,2,2_ + 1 int_ex_flow_1_8,2,2_ - 1 int_ex_flow_1_14,2,2_ - 1 int_ex_flow_1_15,2,2_ = 0
c55: -1 int_cand_flow_1_6,3,2_ + 1 shared_ex_flow_1,3,2_ + 1 int_ex_flow_1_8,3,2_ - 1 int_ex_flow_1_14,3,2_ - 1 int_ex_flow_1_15,3,2_ = 0
c56: -1 int_cand_flow_1_6,4,2_ + 1 shared_ex_flow_1,4,2_ + 1 int_ex_flow_1_8,4,2_ - 1 int_ex_flow_1_14,4,2_ - 1 int_ex_flow_1_15,4,2_ = 0
c57: 1 int_cand_flow_1_9,1,1_ + 1 int_ex_flow_1_14,1,1_ = 0
c58: 1 int_cand_flow_1_9,2,1_ + 1 int_ex_flow_1_14,2,1_ = 0
c59: 1 int_cand_flow_1_9,3,1_ + 1 int_ex_flow_1_14,3,1_ = 0
c60: 1 int_cand_flow_1_9,4,1_ + 1 int_ex_flow_1_14,4,1_ = 0
c61: 1 int_cand_flow_1_9,1,2_ + 1 int_ex_flow_1_14,1,2_ = 0
c62: 1 int_cand_flow_1_9,2,2_ + 1 int_ex_flow_1_14,2,2_ = 0
c63: 1 int_cand_flow_1_9,3,2_ + 1 int_ex_flow_1_14,3,2_ = 0
c64: 1 int_cand_flow_1_9,4,2_ + 1 int_ex_flow_1_14,4,2_ = 0
c65: 1 shared_ex_flow_2,1,1_ + 1 int_ex_flow_1_9,1,1_ + 1 int_ex_flow_1_15,1,1_ - 1 int_ex_flow_1_16,1,1_ - 1 int_ex_flow_1_17,1,1_ = 0.1142753483648019
c66: 1 shared_ex_flow_2,2,1_ + 1 int_ex_flow_1_9,2,1_ + 1 int_ex_flow_1_15,2,1_ - 1 int_ex_flow_1_16,2,1_ - 1 int_ex_flow_1_17,2,1_ = 0.05566403076633116
c67: 1 shared_ex_flow_2,3,1_ + 1 int_ex_flow_1_9,3,1_ + 1 int_ex_flow_1_15,3,1_ - 1 int_ex_flow_1_16,3,1_ - 1 int_ex_flow_1_17,3,1_ = 0.05853570105507716
c68: 1 shared_ex_flow_2,4,1_ + 1 int_ex_flow_1_9,4,1_ + 1 int_ex_flow_1_15,4,1_ - 1 int_ex_flow_1_16,4,1_ - 1 int_ex_flow_1_17,4,1_ = 0.06377111553729878
c69: 1 shared_ex_flow_2,1,2_ + 1 int_ex_flow_1_9,1,2_ + 1 int_ex_flow_1_15,1,2_ - 1 int_ex_flow_1_16,1,2_ - 1 int_ex_flow_1_17,1,2_ = 0.2277153249742093
c70: 1 shared_ex_flow_2,2,2_ + 1 int_ex_flow_1_9,2,2_ + 1 int_ex_flow_1_15,2,2_ - 1 int_ex_flow_1_16,2,2_ - 1 int_ex_flow_1_17,2,2_ = 0.12914436243504374
c71: 1 shared_ex_flow_2,3,2_ + 1 int_ex_flow_1_9,3,2_ + 1 int_ex_flow_1_15,3,2_ - 1 int_ex_flow_1_16,3,2_ - 1 int_ex_flow_1_17,3,2_ = 0.19954035805235432
c72: 1 shared_ex_flow_2,4,2_ + 1 int_ex_flow_1_9,4,2_ + 1 int_ex_flow_1_15,4,2_ - 1 int_ex_flow_1_16,4,2_ - 1 int_ex_flow_1_17,4,2_ = 0.054002563652325294
c73: -1 shared_cand_flow_3,1,1_ - 1 shared_ex_flow_2,1,1_ + 1 int_ex_flow_1_16,1,1_ - 1 int_ex_flow_1_18,1,1_ = 0.009287716185074705
c74: -1 shared_cand_flow_3,2,1_ - 1 shared_ex_flow_2,2,1_ + 1 int_ex_flow_1_16,2,1_ - 1 int_ex_flow_1_18,2,1_ = 0.03642447401736579
c75: -1 shared_cand_flow_3,3,1_ - 1 shared_ex_flow_2,3,1_ + 1 int_ex_flow_1_16,3,1_ - 1 int_ex_flow_1_18,3,1_ = 0.05795040111646596
c76: -1 shared_cand_flow_3,4,1_ - 1 shared_ex_flow_2,4,1_ + 1 int_ex_flow_1_16,4,1_ - 1 int_ex_flow_1_18,4,1_ = 0.015225908828389787
c77: -1 shared_cand_flow_3,1,2_ - 1 shared_ex_flow_2,1,2_ + 1 int_ex_flow_1_16,1,2_ - 1 int_ex_flow_1_18,1,2_ = 0.0528826442587966
c78: -1 shared_cand_flow_3,2,2_ - 1 shared_ex_flow_2,2,2_ + 1 int_ex_flow_1_16,2,2_ - 1 int_ex_flow_1_18,2,2_ = 0.010072836122423766
c79: -1 shared_cand_flow_3,3,2_ - 1 shared_ex_flow_2,3,2_ + 1 int_ex_flow_1_16,3,2_ - 1 int_ex_flow_1_18,3,2_ = 0.02534064235005469
c80: -1 shared_cand_flow_3,4,2_ - 1 shared_ex_flow_2,4,2_ + 1 int_ex_flow_1_16,4,2_ - 1 int_ex_flow_1_18,4,2_ = 0.020719899542850983
c81: 1 int_ex_flow_1_11,1,1_ + 1 int_ex_flow_1_18,1,1_ = 0.024726139954883156
c82: 1 int_ex_flow_1_11,2,1_ + 1 int_ex_flow_1_18,2,1_ = 0.015382096483909877
c83: 1 int_ex_flow_1_11,3,1_ + 1 int_ex_flow_1_18,3,1_ = 0.011458041051542679
c84: 1 int_ex_flow_1_11,4,1_ + 1 int_ex_flow_1_18,4,1_ = 0.005121351078675105
c85: 1 int_ex_flow_1_11,1,2_ + 1 int_ex_flow_1_18,1,2_ = 0.02435956917835104
c86: 1 int_ex_flow_1_11,2,2_ + 1 int_ex_flow_1_18,2,2_ = 0.007302472022169873
c87: 1 int_ex_flow_1_11,3,2_ + 1 int_ex_flow_1_18,3,2_ = 0.005167216033550955
c88: 1 int_ex_flow_1_11,4,2_ + 1 int_ex_flow_1_18,4,2_ = 0.004928904813560081
c89: 1 int_cand_flow_1_2,1,1_ + 1 int_cand_flow_1_8,1,1_ - 1 shared_ex_flow_5,1,1_ + 1 int_ex_flow_1_12,1,1_ - 1 int_ex_flow_1_19,1,1_ = 0.028329197798044204
c90: 1 int_cand_flow_1_2,2,1_ + 1 int_cand_flow_1_8,2,1_ - 1 shared_ex_flow_5,2,1_ + 1 int_ex_flow_1_12,2,1_ - 1 int_ex_flow_1_19,2,1_ = 0.01767754582942229
c91: 1 int_cand_flow_1_2,3,1_ + 1 int_cand_flow_1_8,3,1_ - 1 shared_ex_flow_5,3,1_ + 1 int_ex_flow_1_12,3,1_ - 1 int_ex_flow_1_19,3,1_ = 0.02479127136563232
c92: 1 int_cand_flow_1_2,4,1_ + 1 int_cand_flow_1_8,4,1_ - 1 shared_ex_flow_5,4,1_ + 1 int_ex_flow_1_12,4,1_ - 1 int_ex_flow_1_19,4,1_ = 0.0010931246951886107
c93: 1 int_cand_flow_1_2,1,2_ + 1 int_cand_flow_1_8,1,2_ - 1 shared_ex_flow_5,1,2_ + 1 int_ex_flow_1_12,1,2_ - 1 int_ex_flow_1_19,1,2_ = 0.05031203347572548
c94: 1 int_cand_flow_1_2,2,2_ + 1 int_cand_flow_1_8,2,2_ - 1 shared_ex_flow_5,2,2_ + 1 int_ex_flow_1_12,2,2_ - 1 int_ex_flow_1_19,2,2_ = 0.024517939199919278
c95: 1 int_cand_flow_1_2,3,2_ + 1 int_cand_flow_1_8,3,2_ - 1 shared_ex_flow_5,3,2_ + 1 int_ex_flow_1_12,3,2_ - 1 int_ex_flow_1_19,3,2_ = 0.03551066213157018
c96: 1 int_cand_flow_1_2,4,2_ + 1 int_cand_flow_1_8,4,2_ - 1 shared_ex_flow_5,4,2_ + 1 int_ex_flow_1_12,4,2_ - 1 int_ex_flow_1_19,4,2_ = 0.014223425482003747
c97: -1 int_cand_flow_1_9,1,1_ + 1 int_ex_flow_1_13,1,1_ + 1 int_ex_flow_1_19,1,1_ - 1 int_ex_flow_1_20,1,1_ = 0.11352037211655476
c98: -1 int_cand_flow_1_9,2,1_ + 1 int_ex_flow_1_13,2,1_ + 1 int_ex_flow_1_19,2,1_ - 1 int_ex_flow_1_20,2,1_ = 0.053629218125929065
c99: -1 int_cand_flow_1_9,3,1_ + 1 int_ex_flow_1_13,3,1_ + 1 int_ex_flow_1_19,3,1_ - 1 int_ex_flow_1_20,3,1_ = 0.0451505001663922
c100: -1 int_cand_flow_1_9,4,1_ + 1 int_ex_flow_1_13,4,1_ + 1 int_ex_flow_1_19,4,1_ - 1 int_ex_flow_1_20,4,1_ = 0.021558077033877465
c101: -1 int_cand_flow_1_9,1,2_ + 1 int_ex_flow_1_13,1,2_ + 1 int_ex_flow_1_19,1,2_ - 1 int_ex_flow_1_20,1,2_ = 0.10737440903654029
c102: -1 int_cand_flow_1_9,2,2_ + 1 int_ex_flow_1_13,2,2_ + 1 int_ex_flow_1_19,2,2_ - 1 int_ex_flow_1_20,2,2_ = 0.04322996645194205
c103: -1 int_cand_flow_1_9,3,2_ + 1 int_ex_flow_1_13,3,2_ + 1 int_ex_flow_1_19,3,2_ - 1 int_ex_flow_1_20,3,2_ = 0.004761114333769012
c104: -1 int_cand_flow_1_9,4,2_ + 1 int_ex_flow_1_13,4,2_ + 1 int_ex_flow_1_19,4,2_ - 1 int_ex_flow_1_20,4,2_ = 0.02387397230933761
c105: 1 shared_cand_flow_4,1,1_ + 1 int_cand_flow_1_6,1,1_ - 1 int_cand_flow_1_10,1,1_ + 1 int_ex_flow_1_17,1,1_ + 1 int_ex_flow_1_20,1,1_ = 0.14796411930361938
c106: 1 shared_cand_flow_4,2,1_ + 1 int_cand_flow_1_6,2,1_ - 1 int_cand_flow_1_10,2,1_ + 1 int_ex_flow_1_17,2,1_ + 1 int_ex_flow_1_20,2,1_ = 0.008728123928915352
c107: 1 shared_cand_flow_4,3,1_ + 1 int_cand_flow_1_6,3,1_ - 1 int_cand_flow_1_10,3,1_ + 1 int_ex_flow_1_17,3,1_ + 1 int_ex_flow_1_20,3,1_ = 0.006566448468578802
c108: 1 shared_cand_flow_4,4,1_ + 1 int_cand_flow_1_6,4,1_ - 1 int_cand_flow_1_10,4,1_ + 1 int_ex_flow_1_17,4,1_ + 1 int_ex_flow_1_20,4,1_ = 0.025077481338851536
c109: 1 shared_cand_flow_4,1,2_ + 1 int_cand_flow_1_6,1,2_ - 1 int_cand_flow_1_10,1,2_ + 1 int_ex_flow_1_17,1,2_ + 1 int_ex_flow_1_20,1,2_ = 0.023041553315319804
c110: 1 shared_cand_flow_4,2,2_ + 1 int_cand_flow_1_6,2,2_ - 1 int_cand_flow_1_10,2,2_ + 1 int_ex_flow_1_17,2,2_ + 1 int_ex_flow_1_20,2,2_ = 0.007234520779624978
c111: 1 shared_cand_flow_4,3,2_ + 1 int_cand_flow_1_6,3,2_ - 1 int_cand_flow_1_10,3,2_ + 1 int_ex_flow_1_17,3,2_ + 1 int_ex_flow_1_20,3,2_ = 0.06939551721846876
c112: 1 shared_cand_flow_4,4,2_ + 1 int_cand_flow_1_6,4,2_ - 1 int_cand_flow_1_10,4,2_ + 1 int_ex_flow_1_17,4,2_ + 1 int_ex_flow_1_20,4,2_ = 0.011004780813767687
c113: 1 gen_var_2_1,1,1_ - 1 int_cand_flow_2_3,1,1_ - 1 int_cand_flow_2_13,1,1_ - 1 int_ex_flow_2_1,1,1_ - 1 int_ex_flow_2_2,1,1_ = 0
c114: 1 gen_var_2_1,2,1_ - 1 int_cand_flow_2_3,2,1_ - 1 int_cand_flow_2_13,2,1_ - 1 int_ex_flow_2_1,2,1_ - 1 int_ex_flow_2_2,2,1_ = 0
c115: 1 gen_var_2_1,3,1_ - 1 int_cand_flow_2_3,3,1_ - 1 int_cand_flow_2_13,3,1_ - 1 int_ex_flow_2_1,3,1_ - 1 int_ex_flow_2_2,3,1_ = 0
c116: 1 gen_var_2_1,4,1_ - 1 int_cand_flow_2_3,4,1_ - 1 int_cand_flow_2_13,4,1_ - 1 int_ex_flow_2_1,4,1_ - 1 int_ex_flow_2_2,4,1_ = 0
c117: 1 gen_var_2_1,1,2_ - 1 int_cand_flow_2_3,1,2_ - 1 int_cand_flow_2_13,1,2_ - 1 int_ex_flow_2_1,1,2_ - 1 int_ex_flow_2_2,1,2_ = 0
c118: 1 gen_var_2_1,2,2_ - 1 int_cand_flow_2_3,2,2_ - 1 int_cand_flow_2_13,2,2_ - 1 int_ex_flow_2_1,2,2_ - 1 int_ex_flow_2_2,2,2_ = 0
c119: 1 gen_var_2_1,3,2_ - 1 int_cand_flow_2_3,3,2_ - 1 int_cand_flow_2_13,3,2_ - 1 int_ex_flow_2_1,3,2_ - 1 int_ex_flow_2_2,3,2_ = 0
c120: 1 gen_var_2_1,4,2_ - 1 int_cand_flow_2_3,4,2_ - 1 int_cand_flow_2_13,4,2_ - 1 int_ex_flow_2_1,4,2_ - 1 int_ex_flow_2_2,4,2_ = 0
c121: 1 gen_var_2_2,1,1_ - 1 shared_cand_flow_6,1,1_ - 1 int_cand_flow_2_2,1,1_ + 1 int_cand_flow_2_3,1,1_ + 1 int_cand_flow_2_4,1,1_ + 1 int_cand_flow_2_10,1,1_ - 1 int_cand_flow_2_15,1,1_ + 1 shared_ex_flow_6,1,1_ + 1 int_ex_flow_2_1,1,1_ - 1 int_ex_flow_2_3,1,1_ - 1 int_ex_flow_2_4,1,1_ - 1 int_ex_flow_2_5,1,1_ = 0.13479663155553814
c122: 1 gen_var_2_2,2,1_ - 1 shared_cand_flow_6,2,1_ - 1 int_cand_flow_2_2,2,1_ + 1 int_cand_flow_2_3,2,1_ + 1 int_cand_flow_2_4,2,1_ + 1 int_cand_flow_2_10,2,1_ - 1 int_cand_flow_2_15,2,1_ + 1 shared_ex_flow_6,2,1_ + 1 int_ex_flow_2_1,2,1_ - 1 int_ex_flow_2_3,2,1_ - 1 int_ex_flow_2_4,2,1_ - 1 int_ex_flow_2_5,2,1_ = 0.076479054336537
c123: 1 gen_var_2_2,3,1_ - 1 shared_cand_flow_6,3,1_ - 1 int_cand_flow_2_2,3,1_ + 1 int_cand_flow_2_3,3,1_ + 1 int_cand_flow_2_4,3,1_ + 1 int_cand_flow_2_10,3,1_ - 1 int_cand_flow_2_15,3,1_ + 1 shared_ex_flow_6,3,1_ + 1 int_ex_flow_2_1,3,1_ - 1 int_ex_flow_2_3,3,1_ - 1 int_ex_flow_2_4,3,1_ - 1 int_ex_flow_2_5,3,1_ = 0.10559842634058438
c124: 1 gen_var_2_2,4,1_ - 1 shared_cand_flow_6,4,1_ - 1 int_cand_flow_2_2,4,1_ + 1 int_cand_flow_2_3,4,1_ + 1 int_cand_flow_2_4,4,1_ + 1 int_cand_flow_2_10,4,1_ - 1 int_cand_flow_2_15,4,1_ + 1 shared_ex_flow_6,4,1_ + 1 int_ex_flow_2_1,4,1_ - 1 int_ex_flow_2_3,4,1_ - 1 int_ex_flow_2_4,4,1_ - 1 int_ex_flow_2_5,4,1_ = 0.008122158038405675
c125: 1 gen_var_2_2,1,2_ - 1 shared_cand_flow_6,1,2_ - 1 int_cand_flow_2_2,1,2_ + 1 int_cand_flow_2_3,1,2_ + 1 int_cand_flow_2_4,1,2_ + 1 int_cand_flow_2_10,1,2_ - 1 int_cand_flow_2_15,1,2_ + 1 shared_ex_flow_6,1,2_ + 1 int_ex_flow_2_1,1,2_ - 1 int_ex_flow_2_3,1,2_ - 1 int_ex_flow_2_4,1,2_ - 1 int_ex_flow_2_5,1,2_ = 0.07231742543392462
c126: 1 gen_var_2_2,2,2_ - 1 shared_cand_flow_6,2,2_ - 1 int_cand_flow_2_2,2,2_ + 1 int_cand_flow_2_3,2,2_ + 1 int_cand_flow_2_4,2,2_ + 1 int_cand_flow_2_10,2,2_ - 1 int_cand_flow_2_15,2,2_ + 1 shared_ex_flow_6,2,2_ + 1 int_ex_flow_2_1,2,2_ - 1 int_ex_flow_2_3,2,2_ - 1 int_ex_flow_2_4,2,2_ - 1 int_ex_flow_2_5,2,2_ = 0.09651895296809243
c127: 1 gen_var_2_2,3,2_ - 1 shared_cand_flow_6,3,2_ - 1 int_cand_flow_2_2,3,2_ + 1 int_cand_flow_2_3,3,2_ + 1 int_cand_flow_2_4,3,2_ + 1 int_cand_flow_2_10,3,2_ - 1 int_cand_flow_2_15,3,2_ + 1 shared_ex_flow_6,3,2_ + 1 int_ex_flow_2_1,3,2_ - 1 int_ex_flow_2_3,3,2_ - 1 int_ex_flow_2_4,3,2_ - 1 int_ex_flow_2_5,3,2_ = 0.013823606084826894
c128: 1 gen_var_2_2,4,2_ - 1 shared_cand_flow_6,4,2_ - 1 int_cand_flow_2_2,4,2_ + 1 int_cand_flow_2_3,4,2_ + 1 int_cand_flow_2_4,4,2_ + 1 int_cand_flow_2_10,4,2_ - 1 int_cand_flow_2_15,4,2_ + 1 shared_ex_flow_6,4,2_ + 1 int_ex_flow_2_1,4,2_ - 1 int_ex_flow_2_3,4,2_ - 1 int_ex_flow_2_4,4,2_ - 1 int_ex_flow_2_5,4,2_ = 0.009797873705796888
c129: -1 int_cand_flow_2_17,1,1_ - 1 shared_ex_flow_8,1,1_ + 1 int_ex_flow_2_2,1,1_ - 1 int_ex_flow_2_6,1,1_ = 0.01726005179480768
c130: -1 int_cand_flow_2_17,2,1_ - 1 shared_ex_flow_8,2,1_ + 1 int_ex_flow_2_2,2,1_ - 1 int_ex_flow_2_6,2,1_ = 0.00127911904072111
c131: -1 int_cand_flow_2_17,3,1_ - 1 shared_ex_flow_8,3,1_ + 1 int_ex_flow_2_2,3,1_ - 1 int_ex_flow_2_6,3,1_ = 0.010276454583512064
c132: -1 int_cand_flow_2_17,4,1_ - 1 shared_ex_flow_8,4,1_ + 1 int_ex_flow_2_2,4,1_ - 1 int_ex_flow_2_6,4,1_ = 0.003583724146503267
c133: -1 int_cand_flow_2_17,1,2_ - 1 shared_ex_flow_8,1,2_ + 1 int_ex_flow_2_2,1,2_ - 1 int_ex_flow_2_6,1,2_ = 0.020833527571647786
c134: -1 int_cand_flow_2_17,2,2_ - 1 shared_ex_flow_8,2,2_ + 1 int_ex_flow_2_2,2,2_ - 1 int_ex_flow_2_6,2,2_ = 0.009599724017286641
c135: -1 int_cand_flow_2_17,3,2_ - 1 shared_ex_flow_8,3,2_ + 1 int_ex_flow_2_2,3,2_ - 1 int_ex_flow_2_6,3,2_ = 0.0010278658577131975
c136: -1 int_cand_flow_2_17,4,2_ - 1 shared_ex_flow_8,4,2_ + 1 int_ex_flow_2_2,4,2_ - 1 int_ex_flow_2_6,4,2_ = 0.0011748068876115529
c137: 1 shared_cand_flow_5,1,1_ + 1 int_cand_flow_2_1,1,1_ + 1 int_cand_flow_2_5,1,1_ + 1 int_cand_flow_2_13,1,1_ + 1 int_cand_flow_2_15,1,1_ - 1 shared_ex_flow_7,1,1_ + 1 int_ex_flow_2_3,1,1_ + 1 int_ex_flow_2_6,1,1_ - 1 int_ex_flow_2_7,1,1_ - 1 int_ex_flow_2_8,1,1_ = 0.04697240142595188
c138: 1 shared_cand_flow_5,2,1_ + 1 int_cand_flow_2_1,2,1_ + 1 int_cand_flow_2_5,2,1_ + 1 int_cand_flow_2_13,2,1_ + 1 int_cand_flow_2_15,2,1_ - 1 shared_ex_flow_7,2,1_ + 1 int_ex_flow_2_3,2,1_ + 1 int_ex_flow_2_6,2,1_ - 1 int_ex_flow_2_7,2,1_ - 1 int_ex_flow_2_8,2,1_ = 0.010529217325328308
c139: 1 shared_cand_flow_5,3,1_ + 1 int_cand_flow_2_1,3,1_ + 1 int_cand_flow_2_5,3,1_ + 1 int_cand_flow_2_13,3,1_ + 1 int_cand_flow_2_15,3,1_ - 1 shared_ex_flow_7,3,1_ + 1 int_ex_flow_2_3,3,1_ + 1 int_ex_flow_2_6,3,1_ - 1 int_ex_flow_2_7,3,1_ - 1 int_ex_flow_2_8,3,1_ = 0.037224961834498756
c140: 1 shared_cand_flow_5,4,1_ + 1 int_cand_flow_2_1,4,1_ + 1 int_cand_flow_2_5,4,1_ + 1 int_cand_flow_2_13,4,1_ + 1 int_cand_flow_2_15,4,1_ - 1 shared_ex_flow_7,4,1_ + 1 int_ex_flow_2_3,4,1_ + 1 int_ex_flow_2_6,4,1_ - 1 int_ex_flow_2_7,4,1_ - 1 int_ex_flow_2_8,4,1_ = 0.005207641923782436
c141: 1 shared_cand_flow_5,1,2_ + 1 int_cand_flow_2_1,1,2_ + 1 int_cand_flow_2_5,1,2_ + 1 int_cand_flow_2_13,1,2_ + 1 int_cand_flow_2_15,1,2_ - 1 shared_ex_flow_7,1,2_ + 1 int_ex_flow_2_3,1,2_ + 1 int_ex_flow_2_6,1,2_ - 1 int_ex_flow_2_7,1,2_ - 1 int_ex_flow_2_8,1,2_ = 0.0716644807617353
c142: 1 shared_cand_flow_5,2,2_ + 1 int_cand_flow_2_1,2,2_ + 1 int_cand_flow_2_5,2,2_ + 1 int_cand_flow_2_13,2,2_ + 1 int_cand_flow_2_15,2,2_ - 1 shared_ex_flow_7,2,2_ + 1 int_ex_flow_2_3,2,2_ + 1 int_ex_flow_2_6,2,2_ - 1 int_ex_flow_2_7,2,2_ - 1 int_ex_flow_2_8,2,2_ = 0.03583857586605501
c143: 1 shared_cand_flow_5,3,2_ + 1 int_cand_flow_2_1,3,2_ + 1 int_cand_flow_2_5,3,2_ + 1 int_cand_flow_2_13,3,2_ + 1 int_cand_flow_2_15,3,2_ - 1 shared_ex_flow_7,3,2_ + 1 int_ex_flow_2_3,3,2_ + 1 int_ex_flow_2_6,3,2_ - 1 int_ex_flow_2_7,3,2_ - 1 int_ex_flow_2_8,3,2_ = 0.03102083236438706
c144: 1 shared_cand_flow_5,4,2_ + 1 int_cand_flow_2_1,4,2_ + 1 int_cand_flow_2_5,4,2_ + 1 int_cand_flow_2_13,4,2_ + 1 int_cand_flow_2_15,4,2_ - 1 shared_ex_flow_7,4,2_ + 1 int_ex_flow_2_3,4,2_ + 1 int_ex_flow_2_6,4,2_ - 1 int_ex_flow_2_7,4,2_ - 1 int_ex_flow_2_8,4,2_ = 0.005259412108253473
c145: -1 int_cand_flow_2_4,1,1_ + 1 shared_ex_flow_7,1,1_ + 1 int_ex_flow_2_4,1,1_ - 1 int_ex_flow_2_9,1,1_ = 0
c146: -1 int_cand_flow_2_4,2,1_ + 1 shared_ex_flow_7,2,1_ + 1 int_ex_flow_2_4,2,1_ - 1 int_ex_flow_2_9,2,1_ = 0
c147: -1 int_cand_flow_2_4,3,1_ + 1 shared_ex_flow_7,3,1_ + 1 int_ex_flow_2_4,3,1_ - 1 int_ex_flow_2_9,3,1_ = 0
c148: -1 int_cand_flow_2_4,4,1_ + 1 shared_ex_flow_7,4,1_ + 1 int_ex_flow_2_4,4,1_ - 1 int_ex_flow_2_9,4,1_ = 0
c149: -1 int_cand_flow_2_4,1,2_ + 1 shared_ex_flow_7,1,2_ + 1 int_ex_flow_2_4,1,2_ - 1 int_ex_flow_2_9,1,2_ = 0
c150: -1 int_cand_flow_2_4,2,2_ + 1 shared_ex_flow_7,2,2_ + 1 int_ex_flow_2_4,2,2_ - 1 int_ex_flow_2_9,2,2_ = 0
c151: -1 int_cand_flow_2_4,3,2_ + 1 shared_ex_flow_7,3,2_ + 1 int_ex_flow_2_4,3,2_ - 1 int_ex_flow_2_9,3,2_ = 0
c152: -1 int_cand_flow_2_4,4,2_ + 1 shared_ex_flow_7,4,2_ + 1 int_ex_flow_2_4,4,2_ - 1 int_ex_flow_2_9,4,2_ = 0
c153: 1 int_ex_flow_2_5,1,1_ + 1 int_ex_flow_2_7,1,1_ - 1 int_ex_flow_2_10,1,1_ - 1 int_ex_flow_2_11,1,1_ - 1 int_ex_flow_2_12,1,1_ - 1 int_ex_flow_2_13,1,1_ - 1 int_ex_flow_2_14,1,1_ = 0
c154: 1 int_ex_flow_2_5,2,1_ + 1 int_ex_flow_2_7,2,1_ - 1 int_ex_flow_2_10,2,1_ - 1 int_ex_flow_2_11,2,1_ - 1 int_ex_flow_2_12,2,1_ - 1 int_ex_flow_2_13,2,1_ - 1 int_ex_flow_2_14,2,1_ = 0
c155: 1 int_ex_flow_2_5,3,1_ + 1 int_ex_flow_2_7,3,1_ - 1 int_ex_flow_2_10,3,1_ - 1 int_ex_flow_2_11,3,1_ - 1 int_ex_flow_2_12,3,1_ - 1 int_ex_flow_2_13,3,1_ - 1 int_ex_flow_2_14,3,1_ = 0
c156: 1 int_ex_flow_2_5,4,1_ + 1 int_ex_flow_2_7,4,1_ - 1 int_ex_flow_2_10,4,1_ - 1 int_ex_flow_2_11,4,1_ - 1 int_ex_flow_2_12,4,1_ - 1 int_ex_flow_2_13,4,1_ - 1 int_ex_flow_2_14,4,1_ = 0
c157: 1 int_ex_flow_2_5,1,2_ + 1 int_ex_flow_2_7,1,2_ - 1 int_ex_flow_2_10,1,2_ - 1 int_ex_flow_2_11,1,2_ - 1 int_ex_flow_2_12,1,2_ - 1 int_ex_flow_2_13,1,2_ - 1 int_ex_flow_2_14,1,2_ = 0
c158: 1 int_ex_flow_2_5,2,2_ + 1 int_ex_flow_2_7,2,2_ - 1 int_ex_flow_2_10,2,2_ - 1 int_ex_flow_2_11,2,2_ - 1 int_ex_flow_2_12,2,2_ - 1 int_ex_flow_2_13,2,2_ - 1 int_ex_flow_2_14,2,2_ = 0
c159: 1 int_ex_flow_2_5,3,2_ + 1 int_ex_flow_2_7,3,2_ - 1 int_ex_flow_2_10,3,2_ - 1 int_ex_flow_2_11,3,2_ - 1 int_ex_flow_2_12,3,2_ - 1 int_ex_flow_2_13,3,2_ - 1 int_ex_flow_2_14,3,2_ = 0
c160: 1 int_ex_flow_2_5,4,2_ + 1 int_ex_flow_2_7,4,2_ - 1 int_ex_flow_2_10,4,2_ - 1 int_ex_flow_2_11,4,2_ - 1 int_ex_flow_2_12,4,2_ - 1 int_ex_flow_2_13,4,2_ - 1 int_ex_flow_2_14,4,2_ = 0
c161: 1 shared_ex_flow_1,1,1_ + 1 int_ex_flow_2_9,1,1_ + 1 int_ex_flow_2_10,1,1_ = 0.17976954814729812
c162: 1 shared_ex_flow_1,2,1_ + 1 int_ex_flow_2_9,2,1_ + 1 int_ex_flow_2_10,2,1_ = 0.08272912452280622
c163: 1 shared_ex_flow_1,3,1_ + 1 int_ex_flow_2_9,3,1_ + 1 int_ex_flow_2_10,3,1_ = 0.0781436533273852
c164: 1 shared_ex_flow_1,4,1_ + 1 int_ex_flow_2_9,4,1_ + 1 int_ex_flow_2_10,4,1_ = 0.003794166745261542
c165: 1 shared_ex_flow_1,1,2_ + 1 int_ex_flow_2_9,1,2_ + 1 int_ex_flow_2_10,1,2_ = 0.15346846637787356
c166: 1 shared_ex_flow_1,2,2_ + 1 int_ex_flow_2_9,2,2_ + 1 int_ex_flow_2_10,2,2_ = 0.0006444248369042802
c167: 1 shared_ex_flow_1,3,2_ + 1 int_ex_flow_2_9,3,2_ + 1 int_ex_flow_2_10,3,2_ = 0.0013415114496401115
c168: 1 shared_ex_flow_1,4,2_ + 1 int_ex_flow_2_9,4,2_ + 1 int_ex_flow_2_10,4,2_ = 0.002655462005846283
c169: 1 int_cand_flow_2_18,1,1_ + 1 int_ex_flow_2_11,1,1_ - 1 int_ex_flow_2_15,1,1_ = 0.29246961276062344
c170: 1 int_cand_flow_2_18,2,1_ + 1 int_ex_flow_2_11,2,1_ - 1 int_ex_flow_2_15,2,1_ = 0.0909415540077759
c171: 1 int_cand_flow_2_18,3,1_ + 1 int_ex_flow_2_11,3,1_ - 1 int_ex_flow_2_15,3,1_ = 0.1674525509849706
c172: 1 int_cand_flow_2_18,4,1_ + 1 int_ex_flow_2_11,4,1_ - 1 int_ex_flow_2_15,4,1_ = 0.04674960640081848
c173: 1 int_cand_flow_2_18,1,2_ + 1 int_ex_flow_2_11,1,2_ - 1 int_ex_flow_2_15,1,2_ = 0.18439520228559975
c174: 1 int_cand_flow_2_18,2,2_ + 1 int_ex_flow_2_11,2,2_ - 1 int_ex_flow_2_15,2,2_ = 0.10845337954861377
c175: 1 int_cand_flow_2_18,3,2_ + 1 int_ex_flow_2_11,3,2_ - 1 int_ex_flow_2_15,3,2_ = 0.019699006745924997
c176: 1 int_cand_flow_2_18,4,2_ + 1 int_ex_flow_2_11,4,2_ - 1 int_ex_flow_2_15,4,2_ = 0.06994636402815775
c177: 1 shared_ex_flow_2,1,1_ + 1 int_ex_flow_2_12,1,1_ - 1 int_ex_flow_2_16,1,1_ - 1 int_ex_flow_2_17,1,1_ = 0
c178: 1 shared_ex_flow_2,2,1_ + 1 int_ex_flow_2_12,2,1_ - 1 int_ex_flow_2_16,2,1_ - 1 int_ex_flow_2_17,2,1_ = 0
c179: 1 shared_ex_flow_2,3,1_ + 1 int_ex_flow_2_12,3,1_ - 1 int_ex_flow_2_16,3,1_ - 1 int_ex_flow_2_17,3,1_ = 0
c180: 1 shared_ex_flow_2,4,1_ + 1 int_ex_flow_2_12,4,1_ - 1 int_ex_flow_2_16,4,1_ - 1 int_ex_flow_2_17,4,1_ = 0
c181: 1 shared_ex_flow_2,1,2_ + 1 int_ex_flow_2_12,1,2_ - 1 int_ex_flow_2_16,1,2_ - 1 int_ex_flow_2_17,1,2_ = 0
c182: 1 shared_ex_flow_2,2,2_ + 1 int_ex_flow_2_12,2,2_ - 1 int_ex_flow_2_16,2,2_ - 1 int_ex_flow_2_17,2,2_ = 0
c183: 1 shared_ex_flow_2,3,2_ + 1 int_ex_flow_2_12,3,2_ - 1 int_ex_flow_2_16,3,2_ - 1 int_ex_flow_2_17,3,2_ = 0
c184: 1 shared_ex_flow_2,4,2_ + 1 int_ex_flow_2_12,4,2_ - 1 int_ex_flow_2_16,4,2_ - 1 int_ex_flow_2_17,4,2_ = 0
c185: -1 int_cand_flow_2_5,1,1_ - 1 shared_ex_flow_2,1,1_ + 1 int_ex_flow_2_13,1,1_ + 1 int_ex_flow_2_16,1,1_ - 1 int_ex_flow_2_18,1,1_ - 1 int_ex_flow_2_19,1,1_ - 1 int_ex_flow_2_20,1,1_ - 1 int_ex_flow_2_21,1,1_ = 0.0020784178988464256
c186: -1 int_cand_flow_2_5,2,1_ - 1 shared_ex_flow_2,2,1_ + 1 int_ex_flow_2_13,2,1_ + 1 int_ex_flow_2_16,2,1_ - 1 int_ex_flow_2_18,2,1_ - 1 int_ex_flow_2_19,2,1_ - 1 int_ex_flow_2_20,2,1_ - 1 int_ex_flow_2_21,2,1_ = 0.016056222077895435
c187: -1 int_cand_flow_2_5,3,1_ - 1 shared_ex_flow_2,3,1_ + 1 int_ex_flow_2_13,3,1_ + 1 int_ex_flow_2_16,3,1_ - 1 int_ex_flow_2_18,3,1_ - 1 int_ex_flow_2_19,3,1_ - 1 int_ex_flow_2_20,3,1_ - 1 int_ex_flow_2_21,3,1_ = 0.02919797577761344
c188: -1 int_cand_flow_2_5,4,1_ - 1 shared_ex_flow_2,4,1_ + 1 int_ex_flow_2_13,4,1_ + 1 int_ex_flow_2_16,4,1_ - 1 int_ex_flow_2_18,4,1_ - 1 int_ex_flow_2_19,4,1_ - 1 int_ex_flow_2_20,4,1_ - 1 int_ex_flow_2_21,4,1_ = 0.002576578492326168
c189: -1 int_cand_flow_2_5,1,2_ - 1 shared_ex_flow_2,1,2_ + 1 int_ex_flow_2_13,1,2_ + 1 int_ex_flow_2_16,1,2_ - 1 int_ex_flow_2_18,1,2_ - 1 int_ex_flow_2_19,1,2_ - 1 int_ex_flow_2_20,1,2_ - 1 int_ex_flow_2_21,1,2_ = 0.001218444977878862
c190: -1 int_cand_flow_2_5,2,2_ - 1 shared_ex_flow_2,2,2_ + 1 int_ex_flow_2_13,2,2_ + 1 int_ex_flow_2_16,2,2_ - 1 int_ex_flow_2_18,2,2_ - 1 int_ex_flow_2_19,2,2_ - 1 int_ex_flow_2_20,2,2_ - 1 int_ex_flow_2_21,2,2_ = 0.017056685976905767
c191: -1 int_cand_flow_2_5,3,2_ - 1 shared_ex_flow_2,3,2_ + 1 int_ex_flow_2_13,3,2_ + 1 int_ex_flow_2_16,3,2_ - 1 int_ex_flow_2_18,3,2_ - 1 int_ex_flow_2_19,3,2_ - 1 int_ex_flow_2_20,3,2_ - 1 int_ex_flow_2_21,3,2_ = 0.03548354158828773
c192: -1 int_cand_flow_2_5,4,2_ - 1 shared_ex_flow_2,4,2_ + 1 int_ex_flow_2_13,4,2_ + 1 int_ex_flow_2_16,4,2_ - 1 int_ex_flow_2_18,4,2_ - 1 int_ex_flow_2_19,4,2_ - 1 int_ex_flow_2_20,4,2_ - 1 int_ex_flow_2_21,4,2_ = 0.0029610750088637345
c193: 1 int_cand_flow_2_16,1,1_ + 1 int_ex_flow_2_17,1,1_ = 0
c194: 1 int_cand_flow_2_16,2,1_ + 1 int_ex_flow_2_17,2,1_ = 0
c195: 1 int_cand_flow_2_16,3,1_ + 1 int_ex_flow_2_17,3,1_ = 0
c196: 1 int_cand_flow_2_16,4,1_ + 1 int_ex_flow_2_17,4,1_ = 0
c197: 1 int_cand_flow_2_16,1,2_ + 1 int_ex_flow_2_17,1,2_ = 0
c198: 1 int_cand_flow_2_16,2,2_ + 1 int_ex_flow_2_17,2,2_ = 0
c199: 1 int_cand_flow_2_16,3,2_ + 1 int_ex_flow_2_17,3,2_ = 0
c200: 1 int_cand_flow_2_16,4,2_ + 1 int_ex_flow_2_17,4,2_ = 0
c201: 1 int_cand_flow_2_9,1,1_ + 1 int_cand_flow_2_17,1,1_ + 1 int_ex_flow_2_8,1,1_ - 1 int_ex_flow_2_22,1,1_ - 1 int_ex_flow_2_23,1,1_ - 1 int_ex_flow_2_24,1,1_ - 1 int_ex_flow_2_25,1,1_ = 0.10301351119215534
c202: 1 int_cand_flow_2_9,2,1_ + 1 int_cand_flow_2_17,2,1_ + 1 int_ex_flow_2_8,2,1_ - 1 int_ex_flow_2_22,2,1_ - 1 int_ex_flow_2_23,2,1_ - 1 int_ex_flow_2_24,2,1_ - 1 int_ex_flow_2_25,2,1_ = 0.027304372936427797
c203: 1 int_cand_flow_2_9,3,1_ + 1 int_cand_flow_2_17,3,1_ + 1 int_ex_flow_2_8,3,1_ - 1 int_ex_flow_2_22,3,1_ - 1 int_ex_flow_2_23,3,1_ - 1 int_ex_flow_2_24,3,1_ - 1 int_ex_flow_2_25,3,1_ = 0.018258659084462017
c204: 1 int_cand_flow_2_9,4,1_ + 1 int_cand_flow_2_17,4,1_ + 1 int_ex_flow_2_8,4,1_ - 1 int_ex_flow_2_22,4,1_ - 1 int_ex_flow_2_23,4,1_ - 1 int_ex_flow_2_24,4,1_ - 1 int_ex_flow_2_25,4,1_ = 0.017016555566231564
c205: 1 int_cand_flow_2_9,1,2_ + 1 int_cand_flow_2_17,1,2_ + 1 int_ex_flow_2_8,1,2_ - 1 int_ex_flow_2_22,1,2_ - 1 int_ex_flow_2_23,1,2_ - 1 int_ex_flow_2_24,1,2_ - 1 int_ex_flow_2_25,1,2_ = 0.04296682867452721
c206: 1 int_cand_flow_2_9,2,2_ + 1 int_cand_flow_2_17,2,2_ + 1 int_ex_flow_2_8,2,2_ - 1 int_ex_flow_2_22,2,2_ - 1 int_ex_flow_2_23,2,2_ - 1 int_ex_flow_2_24,2,2_ - 1 int_ex_flow_2_25,2,2_ = 0.005734691075597267
c207: 1 int_cand_flow_2_9,3,2_ + 1 int_cand_flow_2_17,3,2_ + 1 int_ex_flow_2_8,3,2_ - 1 int_ex_flow_2_22,3,2_ - 1 int_ex_flow_2_23,3,2_ - 1 int_ex_flow_2_24,3,2_ - 1 int_ex_flow_2_25,3,2_ = 0.013927375757678629
c208: 1 int_cand_flow_2_9,4,2_ + 1 int_cand_flow_2_17,4,2_ + 1 int_ex_flow_2_8,4,2_ - 1 int_ex_flow_2_22,4,2_ - 1 int_ex_flow_2_23,4,2_ - 1 int_ex_flow_2_24,4,2_ - 1 int_ex_flow_2_25,4,2_ = 0.011840417080466488
c209: 1 gen_var_2_13,1,1_ - 1 int_cand_flow_2_9,1,1_ + 1 int_ex_flow_2_22,1,1_ = 0
c210: 1 gen_var_2_13,2,1_ - 1 int_cand_flow_2_9,2,1_ + 1 int_ex_flow_2_22,2,1_ = 0
c211: 1 gen_var_2_13,3,1_ - 1 int_cand_flow_2_9,3,1_ + 1 int_ex_flow_2_22,3,1_ = 0
c212: 1 gen_var_2_13,4,1_ - 1 int_cand_flow_2_9,4,1_ + 1 int_ex_flow_2_22,4,1_ = 0
c213: 1 gen_var_2_13,1,2_ - 1 int_cand_flow_2_9,1,2_ + 1 int_ex_flow_2_22,1,2_ = 0
c214: 1 gen_var_2_13,2,2_ - 1 int_cand_flow_2_9,2,2_ + 1 int_ex_flow_2_22,2,2_ = 0
c215: 1 gen_var_2_13,3,2_ - 1 int_cand_flow_2_9,3,2_ + 1 int_ex_flow_2_22,3,2_ = 0
c216: 1 gen_var_2_13,4,2_ - 1 int_cand_flow_2_9,4,2_ + 1 int_ex_flow_2_22,4,2_ = 0
c217: 1 shared_cand_flow_4,1,1_ + 1 int_cand_flow_2_6,1,1_ + 1 int_cand_flow_2_7,1,1_ + 1 int_ex_flow_2_23,1,1_ - 1 int_ex_flow_2_26,1,1_ = 0.0004052309058547778
c218: 1 shared_cand_flow_4,2,1_ + 1 int_cand_flow_2_6,2,1_ + 1 int_cand_flow_2_7,2,1_ + 1 int_ex_flow_2_23,2,1_ - 1 int_ex_flow_2_26,2,1_ = 0.004139585657103448
c219: 1 shared_cand_flow_4,3,1_ + 1 int_cand_flow_2_6,3,1_ + 1 int_cand_flow_2_7,3,1_ + 1 int_ex_flow_2_23,3,1_ - 1 int_ex_flow_2_26,3,1_ = 0.03788974288608649
c220: 1 shared_cand_flow_4,4,1_ + 1 int_cand_flow_2_6,4,1_ + 1 int_cand_flow_2_7,4,1_ + 1 int_ex_flow_2_23,4,1_ - 1 int_ex_flow_2_26,4,1_ = 0.007302835374230157
c221: 1 shared_cand_flow_4,1,2_ + 1 int_cand_flow_2_6,1,2_ + 1 int_cand_flow_2_7,1,2_ + 1 int_ex_flow_2_23,1,2_ - 1 int_ex_flow_2_26,1,2_ = 0.03630358339733318
c222: 1 shared_cand_flow_4,2,2_ + 1 int_cand_flow_2_6,2,2_ + 1 int_cand_flow_2_7,2,2_ + 1 int_ex_flow_2_23,2,2_ - 1 int_ex_flow_2_26,2,2_ = 0.030879433673016224
c223: 1 shared_cand_flow_4,3,2_ + 1 int_cand_flow_2_6,3,2_ + 1 int_cand_flow_2_7,3,2_ + 1 int_ex_flow_2_23,3,2_ - 1 int_ex_flow_2_26,3,2_ = 0.04585211475287429
c224: 1 shared_cand_flow_4,4,2_ + 1 int_cand_flow_2_6,4,2_ + 1 int_cand_flow_2_7,4,2_ + 1 int_ex_flow_2_23,4,2_ - 1 int_ex_flow_2_26,4,2_ = 0.010114961050535188
c225: 1 shared_cand_flow_6,1,1_ + 1 int_cand_flow_2_2,1,1_ + 1 int_cand_flow_2_8,1,1_ + 1 int_ex_flow_2_24,1,1_ + 1 int_ex_flow_2_26,1,1_ - 1 int_ex_flow_2_27,1,1_ - 1 int_ex_flow_2_28,1,1_ = 0.052951369592536615
c226: 1 shared_cand_flow_6,2,1_ + 1 int_cand_flow_2_2,2,1_ + 1 int_cand_flow_2_8,2,1_ + 1 int_ex_flow_2_24,2,1_ + 1 int_ex_flow_2_26,2,1_ - 1 int_ex_flow_2_27,2,1_ - 1 int_ex_flow_2_28,2,1_ = 0.017007189739206452
c227: 1 shared_cand_flow_6,3,1_ + 1 int_cand_flow_2_2,3,1_ + 1 int_cand_flow_2_8,3,1_ + 1 int_ex_flow_2_24,3,1_ + 1 int_ex_flow_2_26,3,1_ - 1 int_ex_flow_2_27,3,1_ - 1 int_ex_flow_2_28,3,1_ = 0.046430393821949204
c228: 1 shared_cand_flow_6,4,1_ + 1 int_cand_flow_2_2,4,1_ + 1 int_cand_flow_2_8,4,1_ + 1 int_ex_flow_2_24,4,1_ + 1 int_ex_flow_2_26,4,1_ - 1 int_ex_flow_2_27,4,1_ - 1 int_ex_flow_2_28,4,1_ = 0.019679645021060857
c229: 1 shared_cand_flow_6,1,2_ + 1 int_cand_flow_2_2,1,2_ + 1 int_cand_flow_2_8,1,2_ + 1 int_ex_flow_2_24,1,2_ + 1 int_ex_flow_2_26,1,2_ - 1 int_ex_flow_2_27,1,2_ - 1 int_ex_flow_2_28,1,2_ = 0.056903650332516716
c230: 1 shared_cand_flow_6,2,2_ + 1 int_cand_flow_2_2,2,2_ + 1 int_cand_flow_2_8,2,2_ + 1 int_ex_flow_2_24,2,2_ + 1 int_ex_flow_2_26,2,2_ - 1 int_ex_flow_2_27,2,2_ - 1 int_ex_flow_2_28,2,2_ = 0.022026366475353082
c231: 1 shared_cand_flow_6,3,2_ + 1 int_cand_flow_2_2,3,2_ + 1 int_cand_flow_2_8,3,2_ + 1 int_ex_flow_2_24,3,2_ + 1 int_ex_flow_2_26,3,2_ - 1 int_ex_flow_2_27,3,2_ - 1 int_ex_flow_2_28,3,2_ = 0.04863731599188542
c232: 1 shared_cand_flow_6,4,2_ + 1 int_cand_flow_2_2,4,2_ + 1 int_cand_flow_2_8,4,2_ + 1 int_ex_flow_2_24,4,2_ + 1 int_ex_flow_2_26,4,2_ - 1 int_ex_flow_2_27,4,2_ - 1 int_ex_flow_2_28,4,2_ = 0.016050557835205783
c233: 1 int_cand_flow_2_12,1,1_ + 1 int_ex_flow_2_25,1,1_ - 1 int_ex_flow_2_29,1,1_ = 0.004814848634602416
c234: 1 int_cand_flow_2_12,2,1_ + 1 int_ex_flow_2_25,2,1_ - 1 int_ex_flow_2_29,2,1_ = 0.002310873867776753
c235: 1 int_cand_flow_2_12,3,1_ + 1 int_ex_flow_2_25,3,1_ - 1 int_ex_flow_2_29,3,1_ = 0.011444849787372723
c236: 1 int_cand_flow_2_12,4,1_ + 1 int_ex_flow_2_25,4,1_ - 1 int_ex_flow_2_29,4,1_ = 0.00045730996870775337
c237: 1 int_cand_flow_2_12,1,2_ + 1 int_ex_flow_2_25,1,2_ - 1 int_ex_flow_2_29,1,2_ = 0.02146177267455554
c238: 1 int_cand_flow_2_12,2,2_ + 1 int_ex_flow_2_25,2,2_ - 1 int_ex_flow_2_29,2,2_ = 0.01668433690169059
c239: 1 int_cand_flow_2_12,3,2_ + 1 int_ex_flow_2_25,3,2_ - 1 int_ex_flow_2_29,3,2_ = 0.002641317025138293
c240: 1 int_cand_flow_2_12,4,2_ + 1 int_ex_flow_2_25,4,2_ - 1 int_ex_flow_2_29,4,2_ = 0.003207970835403651
c241: 1 int_cand_flow_2_11,1,1_ + 1 int_ex_flow_2_18,1,1_ + 1 int_ex_flow_2_29,1,1_ = 0.05489558949203638
c242: 1 int_cand_flow_2_11,2,1_ + 1 int_ex_flow_2_18,2,1_ + 1 int_ex_flow_2_29,2,1_ = 0.012746553439286079
c243: 1 int_cand_flow_2_11,3,1_ + 1 int_ex_flow_2_18,3,1_ + 1 int_ex_flow_2_29,3,1_ = 0.007142570757061909
c244: 1 int_cand_flow_2_11,4,1_ + 1 int_ex_flow_2_18,4,1_ + 1 int_ex_flow_2_29,4,1_ = 0.004406316835969476
c245: 1 int_cand_flow_2_11,1,2_ + 1 int_ex_flow_2_18,1,2_ + 1 int_ex_flow_2_29,1,2_ = 0.02475840746825651
c246: 1 int_cand_flow_2_11,2,2_ + 1 int_ex_flow_2_18,2,2_ + 1 int_ex_flow_2_29,2,2_ = 0.04272794838476713
c247: 1 int_cand_flow_2_11,3,2_ + 1 int_ex_flow_2_18,3,2_ + 1 int_ex_flow_2_29,3,2_ = 0.018892529860314495
c248: 1 int_cand_flow_2_11,4,2_ + 1 int_ex_flow_2_18,4,2_ + 1 int_ex_flow_2_29,4,2_ = 0.01533059349597623
c249: 1 int_ex_flow_2_27,1,1_ - 1 int_ex_flow_2_30,1,1_ = 0.01907446916607552
c250: 1 int_ex_flow_2_27,2,1_ - 1 int_ex_flow_2_30,2,1_ = 0.0003754940776381641
c251: 1 int_ex_flow_2_27,3,1_ - 1 int_ex_flow_2_30,3,1_ = 0.012766012664786433
c252: 1 int_ex_flow_2_27,4,1_ - 1 int_ex_flow_2_30,4,1_ = 0.0012000381519215475
c253: 1 int_ex_flow_2_27,1,2_ - 1 int_ex_flow_2_30,1,2_ = 0.012366032778103254
c254: 1 int_ex_flow_2_27,2,2_ - 1 int_ex_flow_2_30,2,2_ = 0.013671299095164931
c255: 1 int_ex_flow_2_27,3,2_ - 1 int_ex_flow_2_30,3,2_ = 0.02093539542075503
c256: 1 int_ex_flow_2_27,4,2_ - 1 int_ex_flow_2_30,4,2_ = 0.007947846259662104
c257: -1 shared_cand_flow_4,1,1_ - 1 int_cand_flow_2_6,1,1_ - 1 int_cand_flow_2_14,1,1_ - 1 shared_ex_flow_1,1,1_ + 1 int_ex_flow_2_30,1,1_ - 1 int_ex_flow_2_31,1,1_ = 0.06658919529569195
c258: -1 shared_cand_flow_4,2,1_ - 1 int_cand_flow_2_6,2,1_ - 1 int_cand_flow_2_14,2,1_ - 1 shared_ex_flow_1,2,1_ + 1 int_ex_flow_2_30,2,1_ - 1 int_ex_flow_2_31,2,1_ = 0.04362586746736066
c259: -1 shared_cand_flow_4,3,1_ - 1 int_cand_flow_2_6,3,1_ - 1 int_cand_flow_2_14,3,1_ - 1 shared_ex_flow_1,3,1_ + 1 int_ex_flow_2_30,3,1_ - 1 int_ex_flow_2_31,3,1_ = 0.04553397317198093
c260: -1 shared_cand_flow_4,4,1_ - 1 int_cand_flow_2_6,4,1_ - 1 int_cand_flow_2_14,4,1_ - 1 shared_ex_flow_1,4,1_ + 1 int_ex_flow_2_30,4,1_ - 1 int_ex_flow_2_31,4,1_ = 0.004052630422056851
c261: -1 shared_cand_flow_4,1,2_ - 1 int_cand_flow_2_6,1,2_ - 1 int_cand_flow_2_14,1,2_ - 1 shared_ex_flow_1,1,2_ + 1 int_ex_flow_2_30,1,2_ - 1 int_ex_flow_2_31,1,2_ = 0.08536226125820813
c262: -1 shared_cand_flow_4,2,2_ - 1 int_cand_flow_2_6,2,2_ - 1 int_cand_flow_2_14,2,2_ - 1 shared_ex_flow_1,2,2_ + 1 int_ex_flow_2_30,2,2_ - 1 int_ex_flow_2_31,2,2_ = 0.008594646496515696
c263: -1 shared_cand_flow_4,3,2_ - 1 int_cand_flow_2_6,3,2_ - 1 int_cand_flow_2_14,3,2_ - 1 shared_ex_flow_1,3,2_ + 1 int_ex_flow_2_30,3,2_ - 1 int_ex_flow_2_31,3,2_ = 0.04966017588319188
c264: -1 shared_cand_flow_4,4,2_ - 1 int_cand_flow_2_6,4,2_ - 1 int_cand_flow_2_14,4,2_ - 1 shared_ex_flow_1,4,2_ + 1 int_ex_flow_2_30,4,2_ - 1 int_ex_flow_2_31,4,2_ = 0.0010085271552441215
c265: -1 int_cand_flow_2_11,1,1_ + 1 int_cand_flow_2_14,1,1_ - 1 int_cand_flow_2_16,1,1_ - 1 int_cand_flow_2_18,1,1_ + 1 int_ex_flow_2_19,1,1_ + 1 int_ex_flow_2_31,1,1_ = 0.0007110449116871841
c266: -1 int_cand_flow_2_11,2,1_ + 1 int_cand_flow_2_14,2,1_ - 1 int_cand_flow_2_16,2,1_ - 1 int_cand_flow_2_18,2,1_ + 1 int_ex_flow_2_19,2,1_ + 1 int_ex_flow_2_31,2,1_ = 0.006890835600278224
c267: -1 int_cand_flow_2_11,3,1_ + 1 int_cand_flow_2_14,3,1_ - 1 int_cand_flow_2_16,3,1_ - 1 int_cand_flow_2_18,3,1_ + 1 int_ex_flow_2_19,3,1_ + 1 int_ex_flow_2_31,3,1_ = 0.008653492504859792
c268: -1 int_cand_flow_2_11,4,1_ + 1 int_cand_flow_2_14,4,1_ - 1 int_cand_flow_2_16,4,1_ - 1 int_cand_flow_2_18,4,1_ + 1 int_ex_flow_2_19,4,1_ + 1 int_ex_flow_2_31,4,1_ = 0.0009998915232109068
c269: -1 int_cand_flow_2_11,1,2_ + 1 int_cand_flow_2_14,1,2_ - 1 int_cand_flow_2_16,1,2_ - 1 int_cand_flow_2_18,1,2_ + 1 int_ex_flow_2_19,1,2_ + 1 int_ex_flow_2_31,1,2_ = 0.017346667730624085
c270: -1 int_cand_flow_2_11,2,2_ + 1 int_cand_flow_2_14,2,2_ - 1 int_cand_flow_2_16,2,2_ - 1 int_cand_flow_2_18,2,2_ + 1 int_ex_flow_2_19,2,2_ + 1 int_ex_flow_2_31,2,2_ = 0.005370808937545225
c271: -1 int_cand_flow_2_11,3,2_ + 1 int_cand_flow_2_14,3,2_ - 1 int_cand_flow_2_16,3,2_ - 1 int_cand_flow_2_18,3,2_ + 1 int_ex_flow_2_19,3,2_ + 1 int_ex_flow_2_31,3,2_ = 0.006669362746519346
c272: -1 int_cand_flow_2_11,4,2_ + 1 int_cand_flow_2_14,4,2_ - 1 int_cand_flow_2_16,4,2_ - 1 int_cand_flow_2_18,4,2_ + 1 int_ex_flow_2_19,4,2_ + 1 int_ex_flow_2_31,4,2_ = 0.001261043709232065
c273: 1 int_ex_flow_2_20,1,1_ - 1 int_ex_flow_2_32,1,1_ = 0.136644232195697
c274: 1 int_ex_flow_2_20,2,1_ - 1 int_ex_flow_2_32,2,1_ = 0.06350442488093778
c275: 1 int_ex_flow_2_20,3,1_ - 1 int_ex_flow_2_32,3,1_ = 0.09247170871538335
c276: 1 int_ex_flow_2_20,4,1_ - 1 int_ex_flow_2_32,4,1_ = 0.008064982664025604
c277: 1 int_ex_flow_2_20,1,2_ - 1 int_ex_flow_2_32,1,2_ = 0.13893484072112502
c278: 1 int_ex_flow_2_20,2,2_ - 1 int_ex_flow_2_32,2,2_ = 0.03720084950222702
c279: 1 int_ex_flow_2_20,3,2_ - 1 int_ex_flow_2_32,3,2_ = 0.011090627141498187
c280: 1 int_ex_flow_2_20,4,2_ - 1 int_ex_flow_2_32,4,2_ = 0.0025937724477472553
c281: 1 gen_var_2_22,1,1_ - 1 int_cand_flow_2_8,1,1_ + 1 shared_ex_flow_8,1,1_ + 1 int_ex_flow_2_21,1,1_ + 1 int_ex_flow_2_32,1,1_ - 1 int_ex_flow_2_33,1,1_ = 0
c282: 1 gen_var_2_22,2,1_ - 1 int_cand_flow_2_8,2,1_ + 1 shared_ex_flow_8,2,1_ + 1 int_ex_flow_2_21,2,1_ + 1 int_ex_flow_2_32,2,1_ - 1 int_ex_flow_2_33,2,1_ = 0
c283: 1 gen_var_2_22,3,1_ - 1 int_cand_flow_2_8,3,1_ + 1 shared_ex_flow_8,3,1_ + 1 int_ex_flow_2_21,3,1_ + 1 int_ex_flow_2_32,3,1_ - 1 int_ex_flow_2_33,3,1_ = 0
c284: 1 gen_var_2_22,4,1_ - 1 int_cand_flow_2_8,4,1_ + 1 shared_ex_flow_8,4,1_ + 1 int_ex_flow_2_21,4,1_ + 1 int_ex_flow_2_32,4,1_ - 1 int_ex_flow_2_33,4,1_ = 0
c285: 1 gen_var_2_22,1,2_ - 1 int_cand_flow_2_8,1,2_ + 1 shared_ex_flow_8,1,2_ + 1 int_ex_flow_2_21,1,2_ + 1 int_ex_flow_2_32,1,2_ - 1 int_ex_flow_2_33,1,2_ = 0
c286: 1 gen_var_2_22,2,2_ - 1 int_cand_flow_2_8,2,2_ + 1 shared_ex_flow_8,2,2_ + 1 int_ex_flow_2_21,2,2_ + 1 int_ex_flow_2_32,2,2_ - 1 int_ex_flow_2_33,2,2_ = 0
c287: 1 gen_var_2_22,3,2_ - 1 int_cand_flow_2_8,3,2_ + 1 shared_ex_flow_8,3,2_ + 1 int_ex_flow_2_21,3,2_ + 1 int_ex_flow_2_32,3,2_ - 1 int_ex_flow_2_33,3,2_ = 0
c288: 1 gen_var_2_22,4,2_ - 1 int_cand_flow_2_8,4,2_ + 1 shared_ex_flow_8,4,2_ + 1 int_ex_flow_2_21,4,2_ + 1 int_ex_flow_2_32,4,2_ - 1 int_ex_flow_2_33,4,2_ = 0
c289: 1 gen_var_2_23,1,1_ - 1 shared_cand_flow_5,1,1_ - 1 int_cand_flow_2_1,1,1_ + 1 int_ex_flow_2_28,1,1_ - 1 int_ex_flow_2_34,1,1_ = 0.014872206776179429
c290: 1 gen_var_2_23,2,1_ - 1 shared_cand_flow_5,2,1_ - 1 int_cand_flow_2_1,2,1_ + 1 int_ex_flow_2_28,2,1_ - 1 int_ex_flow_2_34,2,1_ = 0.0003817096629382899
c291: 1 gen_var_2_23,3,1_ - 1 shared_cand_flow_5,3,1_ - 1 int_cand_flow_2_1,3,1_ + 1 int_ex_flow_2_28,3,1_ - 1 int_ex_flow_2_34,3,1_ = 0.01751161222747662
c292: 1 gen_var_2_23,4,1_ - 1 shared_cand_flow_5,4,1_ - 1 int_cand_flow_2_1,4,1_ + 1 int_ex_flow_2_28,4,1_ - 1 int_ex_flow_2_34,4,1_ = 0.001621943925162011
c293: 1 gen_var_2_23,1,2_ - 1 shared_cand_flow_5,1,2_ - 1 int_cand_flow_2_1,1,2_ + 1 int_ex_flow_2_28,1,2_ - 1 int_ex_flow_2_34,1,2_ = 0.020067439701124356
c294: 1 gen_var_2_23,2,2_ - 1 shared_cand_flow_5,2,2_ - 1 int_cand_flow_2_1,2,2_ + 1 int_ex_flow_2_28,2,2_ - 1 int_ex_flow_2_34,2,2_ = 0.004883082499201646
c295: 1 gen_var_2_23,3,2_ - 1 shared_cand_flow_5,3,2_ - 1 int_cand_flow_2_1,3,2_ + 1 int_ex_flow_2_28,3,2_ - 1 int_ex_flow_2_34,3,2_ = 0.01153337298381079
c296: 1 gen_var_2_23,4,2_ - 1 shared_cand_flow_5,4,2_ - 1 int_cand_flow_2_1,4,2_ + 1 int_ex_flow_2_28,4,2_ - 1 int_ex_flow_2_34,4,2_ = 0.006887465794412737
c297: 1 int_ex_flow_2_33,1,1_ + 1 int_ex_flow_2_34,1,1_ - 1 int_ex_flow_2_35,1,1_ = 0.041149577907726304
c298: 1 int_ex_flow_2_33,2,1_ + 1 int_ex_flow_2_34,2,1_ - 1 int_ex_flow_2_35,2,1_ = 0.033861813767329295
c299: 1 int_ex_flow_2_33,3,1_ + 1 int_ex_flow_2_34,3,1_ - 1 int_ex_flow_2_35,3,1_ = 0.0126096494119334
c300: 1 int_ex_flow_2_33,4,1_ + 1 int_ex_flow_2_34,4,1_ - 1 int_ex_flow_2_35,4,1_ = 0.0016554574142438247
c301: 1 int_ex_flow_2_33,1,2_ + 1 int_ex_flow_2_34,1,2_ - 1 int_ex_flow_2_35,1,2_ = 0.07420203569686881
c302: 1 int_ex_flow_2_33,2,2_ + 1 int_ex_flow_2_34,2,2_ - 1 int_ex_flow_2_35,2,2_ = 0.03667615143706144
c303: 1 int_ex_flow_2_33,3,2_ + 1 int_ex_flow_2_34,3,2_ - 1 int_ex_flow_2_35,3,2_ = 0.05807227256404932
c304: 1 int_ex_flow_2_33,4,2_ + 1 int_ex_flow_2_34,4,2_ - 1 int_ex_flow_2_35,4,2_ = 0.020371202687189668
c305: -1 int_cand_flow_2_7,1,1_ - 1 int_cand_flow_2_10,1,1_ - 1 shared_ex_flow_6,1,1_ + 1 int_ex_flow_2_35,1,1_ - 1 int_ex_flow_2_36,1,1_ - 1 int_ex_flow_2_37,1,1_ = 0
c306: -1 int_cand_flow_2_7,2,1_ - 1 int_cand_flow_2_10,2,1_ - 1 shared_ex_flow_6,2,1_ + 1 int_ex_flow_2_35,2,1_ - 1 int_ex_flow_2_36,2,1_ - 1 int_ex_flow_2_37,2,1_ = 0
c307: -1 int_cand_flow_2_7,3,1_ - 1 int_cand_flow_2_10,3,1_ - 1 shared_ex_flow_6,3,1_ + 1 int_ex_flow_2_35,3,1_ - 1 int_ex_flow_2_36,3,1_ - 1 int_ex_flow_2_37,3,1_ = 0
c308: -1 int_cand_flow_2_7,4,1_ - 1 int_cand_flow_2_10,4,1_ - 1 shared_ex_flow_6,4,1_ + 1 int_ex_flow_2_35,4,1_ - 1 int_ex_flow_2_36,4,1_ - 1 int_ex_flow_2_37,4,1_ = 0
c309: -1 int_cand_flow_2_7,1,2_ - 1 int_cand_flow_2_10,1,2_ - 1 shared_ex_flow_6,1,2_ + 1 int_ex_flow_2_35,1,2_ - 1 int_ex_flow_2_36,1,2_ - 1 int_ex_flow_2_37,1,2_ = 0
c310: -1 int_cand_flow_2_7,2,2_ - 1 int_cand_flow_2_10,2,2_ - 1 shared_ex_flow_6,2,2_ + 1 int_ex_flow_2_35,2,2_ - 1 int_ex_flow_2_36,2,2_ - 1 int_ex_flow_2_37,2,2_ = 0
c311: -1 int_cand_flow_2_7,3,2_ - 1 int_cand_flow_2_10,3,2_ - 1 shared_ex_flow_6,3,2_ + 1 int_ex_flow_2_35,3,2_ - 1 int_ex_flow_2_36,3,2_ - 1 int_ex_flow_2_37,3,2_ = 0
c312: -1 int_cand_flow_2_7,4,2_ - 1 int_cand_flow_2_10,4,2_ - 1 shared_ex_flow_6,4,2_ + 1 int_ex_flow_2_35,4,2_ - 1 int_ex_flow_2_36,4,2_ - 1 int_ex_flow_2_37,4,2_ = 0
c313: 1 int_ex_flow_2_36,1,1_ = 0.017054384885276063
c314: 1 int_ex_flow_2_36,2,1_ = 0.0016744640169823505
c315: 1 int_ex_flow_2_36,3,1_ = 0.02235875504544887
c316: 1 int_ex_flow_2_36,4,1_ = 0.007389246935390672
c317: 1 int_ex_flow_2_36,1,2_ = 0.00120826544083399
c318: 1 int_ex_flow_2_36,2,2_ = 0.0026460417574146067
c319: 1 int_ex_flow_2_36,3,2_ = 0.02253858315839324
c320: 1 int_ex_flow_2_36,4,2_ = 0.005813576405368353
c321: 1 gen_var_2_27,1,1_ + 1 int_ex_flow_2_37,1,1_ + 1 int_ex_flow_2_38,1,1_ - 1 int_ex_flow_2_39,1,1_ - 1 int_ex_flow_2_40,1,1_ = 0
c322: 1 gen_var_2_27,2,1_ + 1 int_ex_flow_2_37,2,1_ + 1 int_ex_flow_2_38,2,1_ - 1 int_ex_flow_2_39,2,1_ - 1 int_ex_flow_2_40,2,1_ = 0
c323: 1 gen_var_2_27,3,1_ + 1 int_ex_flow_2_37,3,1_ + 1 int_ex_flow_2_38,3,1_ - 1 int_ex_flow_2_39,3,1_ - 1 int_ex_flow_2_40,3,1_ = 0
c324: 1 gen_var_2_27,4,1_ + 1 int_ex_flow_2_37,4,1_ + 1 int_ex_flow_2_38,4,1_ - 1 int_ex_flow_2_39,4,1_ - 1 int_ex_flow_2_40,4,1_ = 0
c325: 1 gen_var_2_27,1,2_ + 1 int_ex_flow_2_37,1,2_ + 1 int_ex_flow_2_38,1,2_ - 1 int_ex_flow_2_39,1,2_ - 1 int_ex_flow_2_40,1,2_ = 0
c326: 1 gen_var_2_27,2,2_ + 1 int_ex_flow_2_37,2,2_ + 1 int_ex_flow_2_38,2,2_ - 1 int_ex_flow_2_39,2,2_ - 1 int_ex_flow_2_40,2,2_ = 0
c327: 1 gen_var_2_27,3,2_ + 1 int_ex_flow_2_37,3,2_ + 1 int_ex_flow_2_38,3,2_ - 1 int_ex_flow_2_39,3,2_ - 1 int_ex_flow_2_40,3,2_ = 0
c328: 1 gen_var_2_27,4,2_ + 1 int_ex_flow_2_37,4,2_ + 1 int_ex_flow_2_38,4,2_ - 1 int_ex_flow_2_39,4,2_ - 1 int_ex_flow_2_40,4,2_ = 0
c329: 1 int_ex_flow_2_14,1,1_ + 1 int_ex_flow_2_15,1,1_ - 1 int_ex_flow_2_38,1,1_ = 0
c330: 1 int_ex_flow_2_14,2,1_ + 1 int_ex_flow_2_15,2,1_ - 1 int_ex_flow_2_38,2,1_ = 0
c331: 1 int_ex_flow_2_14,3,1_ + 1 int_ex_flow_2_15,3,1_ - 1 int_ex_flow_2_38,3,1_ = 0
c332: 1 int_ex_flow_2_14,4,1_ + 1 int_ex_flow_2_15,4,1_ - 1 int_ex_flow_2_38,4,1_ = 0
c333: 1 int_ex_flow_2_14,1,2_ + 1 int_ex_flow_2_15,1,2_ - 1 int_ex_flow_2_38,1,2_ = 0
c334: 1 int_ex_flow_2_14,2,2_ + 1 int_ex_flow_2_15,2,2_ - 1 int_ex_flow_2_38,2,2_ = 0
c335: 1 int_ex_flow_2_14,3,2_ + 1 int_ex_flow_2_15,3,2_ - 1 int_ex_flow_2_38,3,2_ = 0
c336: 1 int_ex_flow_2_14,4,2_ + 1 int_ex_flow_2_15,4,2_ - 1 int_ex_flow_2_38,4,2_ = 0
c337: -1 int_cand_flow_2_12,1,1_ + 1 int_ex_flow_2_39,1,1_ - 1 int_ex_flow_2_41,1,1_ = 0.020023076815682467
c338: -1 int_cand_flow_2_12,2,1_ + 1 int_ex_flow_2_39,2,1_ - 1 int_ex_flow_2_41,2,1_ = 0.005564253234013173
c339: -1 int_cand_flow_2_12,3,1_ + 1 int_ex_flow_2_39,3,1_ - 1 int_ex_flow_2_41,3,1_ = 0.006674650989479598
c340: -1 int_cand_flow_2_12,4,1_ + 1 int_ex_flow_2_39,4,1_ - 1 int_ex_flow_2_41,4,1_ = 0.0009174621461665911
c341: -1 int_cand_flow_2_12,1,2_ + 1 int_ex_flow_2_39,1,2_ - 1 int_ex_flow_2_41,1,2_ = 0.01642367467250982
c342: -1 int_cand_flow_2_12,2,2_ + 1 int_ex_flow_2_39,2,2_ - 1 int_ex_flow_2_41,2,2_ = 0.003863961172201844
c343: -1 int_cand_flow_2_12,3,2_ + 1 int_ex_flow_2_39,3,2_ - 1 int_ex_flow_2_41,3,2_ = 0.002450484744590253
c344: -1 int_cand_flow_2_12,4,2_ + 1 int_ex_flow_2_39,4,2_ - 1 int_ex_flow_2_41,4,2_ = 0.0012050278668350527
c345: 1 int_ex_flow_2_40,1,1_ + 1 int_ex_flow_2_41,1,1_ = 0.014139650729302043
c346: 1 int_ex_flow_2_40,2,1_ + 1 int_ex_flow_2_41,2,1_ = 0.0196994647810692
c347: 1 int_ex_flow_2_40,3,1_ + 1 int_ex_flow_2_41,3,1_ = 0.01770310583724645
c348: 1 int_ex_flow_2_40,4,1_ + 1 int_ex_flow_2_41,4,1_ = 6.991472003750427e-5
c349: 1 int_ex_flow_2_40,1,2_ + 1 int_ex_flow_2_41,1,2_ = 0.05215321369601487
c350: 1 int_ex_flow_2_40,2,2_ + 1 int_ex_flow_2_41,2,2_ = 0.006729753747630511
c351: 1 int_ex_flow_2_40,3,2_ + 1 int_ex_flow_2_41,3,2_ = 0.06917247177237482
c352: 1 int_ex_flow_2_40,4,2_ + 1 int_ex_flow_2_41,4,2_ = 0.0019938282452009255
c353: 1 gen_var_3_1,1,1_ - 1 shared_cand_flow_1,1,1_ - 1 int_cand_flow_3_1,1,1_ + 1 shared_ex_flow_5,1,1_ - 1 int_ex_flow_3_1,1,1_ - 1 int_ex_flow_3_2,1,1_ = 0
c354: 1 gen_var_3_1,2,1_ - 1 shared_cand_flow_1,2,1_ - 1 int_cand_flow_3_1,2,1_ + 1 shared_ex_flow_5,2,1_ - 1 int_ex_flow_3_1,2,1_ - 1 int_ex_flow_3_2,2,1_ = 0
c355: 1 gen_var_3_1,3,1_ - 1 shared_cand_flow_1,3,1_ - 1 int_cand_flow_3_1,3,1_ + 1 shared_ex_flow_5,3,1_ - 1 int_ex_flow_3_1,3,1_ - 1 int_ex_flow_3_2,3,1_ = 0
c356: 1 gen_var_3_1,4,1_ - 1 shared_cand_flow_1,4,1_ - 1 int_cand_flow_3_1,4,1_ + 1 shared_ex_flow_5,4,1_ - 1 int_ex_flow_3_1,4,1_ - 1 int_ex_flow_3_2,4,1_ = 0
c357: 1 gen_var_3_1,1,2_ - 1 shared_cand_flow_1,1,2_ - 1 int_cand_flow_3_1,1,2_ + 1 shared_ex_flow_5,1,2_ - 1 int_ex_flow_3_1,1,2_ - 1 int_ex_flow_3_2,1,2_ = 0
c358: 1 gen_var_3_1,2,2_ - 1 shared_cand_flow_1,2,2_ - 1 int_cand_flow_3_1,2,2_ + 1 shared_ex_flow_5,2,2_ - 1 int_ex_flow_3_1,2,2_ - 1 int_ex_flow_3_2,2,2_ = 0
c359: 1 gen_var_3_1,3,2_ - 1 shared_cand_flow_1,3,2_ - 1 int_cand_flow_3_1,3,2_ + 1 shared_ex_flow_5,3,2_ - 1 int_ex_flow_3_1,3,2_ - 1 int_ex_flow_3_2,3,2_ = 0
c360: 1 gen_var_3_1,4,2_ - 1 shared_cand_flow_1,4,2_ - 1 int_cand_flow_3_1,4,2_ + 1 shared_ex_flow_5,4,2_ - 1 int_ex_flow_3_1,4,2_ - 1 int_ex_flow_3_2,4,2_ = 0
c361: 1 gen_var_3_2,1,1_ + 1 shared_cand_flow_1,1,1_ + 1 shared_cand_flow_2,1,1_ - 1 shared_cand_flow_6,1,1_ + 1 int_cand_flow_3_1,1,1_ + 1 int_cand_flow_3_2,1,1_ + 1 shared_ex_flow_6,1,1_ + 1 int_ex_flow_3_1,1,1_ - 1 int_ex_flow_3_3,1,1_ - 1 int_ex_flow_3_4,1,1_ - 1 int_ex_flow_3_5,1,1_ = 0.07823109996510505
c362: 1 gen_var_3_2,2,1_ + 1 shared_cand_flow_1,2,1_ + 1 shared_cand_flow_2,2,1_ - 1 shared_cand_flow_6,2,1_ + 1 int_cand_flow_3_1,2,1_ + 1 int_cand_flow_3_2,2,1_ + 1 shared_ex_flow_6,2,1_ + 1 int_ex_flow_3_1,2,1_ - 1 int_ex_flow_3_3,2,1_ - 1 int_ex_flow_3_4,2,1_ - 1 int_ex_flow_3_5,2,1_ = 0.05521362923851372
c363: 1 gen_var_3_2,3,1_ + 1 shared_cand_flow_1,3,1_ + 1 shared_cand_flow_2,3,1_ - 1 shared_cand_flow_6,3,1_ + 1 int_cand_flow_3_1,3,1_ + 1 int_cand_flow_3_2,3,1_ + 1 shared_ex_flow_6,3,1_ + 1 int_ex_flow_3_1,3,1_ - 1 int_ex_flow_3_3,3,1_ - 1 int_ex_flow_3_4,3,1_ - 1 int_ex_flow_3_5,3,1_ = 0.06938602141989363
c364: 1 gen_var_3_2,4,1_ + 1 shared_cand_flow_1,4,1_ + 1 shared_cand_flow_2,4,1_ - 1 shared_cand_flow_6,4,1_ + 1 int_cand_flow_3_1,4,1_ + 1 int_cand_flow_3_2,4,1_ + 1 shared_ex_flow_6,4,1_ + 1 int_ex_flow_3_1,4,1_ - 1 int_ex_flow_3_3,4,1_ - 1 int_ex_flow_3_4,4,1_ - 1 int_ex_flow_3_5,4,1_ = 0.03250569866871342
c365: 1 gen_var_3_2,1,2_ + 1 shared_cand_flow_1,1,2_ + 1 shared_cand_flow_2,1,2_ - 1 shared_cand_flow_6,1,2_ + 1 int_cand_flow_3_1,1,2_ + 1 int_cand_flow_3_2,1,2_ + 1 shared_ex_flow_6,1,2_ + 1 int_ex_flow_3_1,1,2_ - 1 int_ex_flow_3_3,1,2_ - 1 int_ex_flow_3_4,1,2_ - 1 int_ex_flow_3_5,1,2_ = 0.17718286268140995
c366: 1 gen_var_3_2,2,2_ + 1 shared_cand_flow_1,2,2_ + 1 shared_cand_flow_2,2,2_ - 1 shared_cand_flow_6,2,2_ + 1 int_cand_flow_3_1,2,2_ + 1 int_cand_flow_3_2,2,2_ + 1 shared_ex_flow_6,2,2_ + 1 int_ex_flow_3_1,2,2_ - 1 int_ex_flow_3_3,2,2_ - 1 int_ex_flow_3_4,2,2_ - 1 int_ex_flow_3_5,2,2_ = 0.03106037606048597
c367: 1 gen_var_3_2,3,2_ + 1 shared_cand_flow_1,3,2_ + 1 shared_cand_flow_2,3,2_ - 1 shared_cand_flow_6,3,2_ + 1 int_cand_flow_3_1,3,2_ + 1 int_cand_flow_3_2,3,2_ + 1 shared_ex_flow_6,3,2_ + 1 int_ex_flow_3_1,3,2_ - 1 int_ex_flow_3_3,3,2_ - 1 int_ex_flow_3_4,3,2_ - 1 int_ex_flow_3_5,3,2_ = 0.014422324796437552
c368: 1 gen_var_3_2,4,2_ + 1 shared_cand_flow_1,4,2_ + 1 shared_cand_flow_2,4,2_ - 1 shared_cand_flow_6,4,2_ + 1 int_cand_flow_3_1,4,2_ + 1 int_cand_flow_3_2,4,2_ + 1 shared_ex_flow_6,4,2_ + 1 int_ex_flow_3_1,4,2_ - 1 int_ex_flow_3_3,4,2_ - 1 int_ex_flow_3_4,4,2_ - 1 int_ex_flow_3_5,4,2_ = 0.03765035019561393
c369: -1 shared_ex_flow_8,1,1_ + 1 int_ex_flow_3_2,1,1_ + 1 int_ex_flow_3_3,1,1_ - 1 int_ex_flow_3_6,1,1_ = 0.4100641788510355
c370: -1 shared_ex_flow_8,2,1_ + 1 int_ex_flow_3_2,2,1_ + 1 int_ex_flow_3_3,2,1_ - 1 int_ex_flow_3_6,2,1_ = 0.20757588422857534
c371: -1 shared_ex_flow_8,3,1_ + 1 int_ex_flow_3_2,3,1_ + 1 int_ex_flow_3_3,3,1_ - 1 int_ex_flow_3_6,3,1_ = 0.22123192243494522
c372: -1 shared_ex_flow_8,4,1_ + 1 int_ex_flow_3_2,4,1_ + 1 int_ex_flow_3_3,4,1_ - 1 int_ex_flow_3_6,4,1_ = 0.028601338273108293
c373: -1 shared_ex_flow_8,1,2_ + 1 int_ex_flow_3_2,1,2_ + 1 int_ex_flow_3_3,1,2_ - 1 int_ex_flow_3_6,1,2_ = 0.3017515666548027
c374: -1 shared_ex_flow_8,2,2_ + 1 int_ex_flow_3_2,2,2_ + 1 int_ex_flow_3_3,2,2_ - 1 int_ex_flow_3_6,2,2_ = 0.17266191819242518
c375: -1 shared_ex_flow_8,3,2_ + 1 int_ex_flow_3_2,3,2_ + 1 int_ex_flow_3_3,3,2_ - 1 int_ex_flow_3_6,3,2_ = 0.2784346384370257
c376: -1 shared_ex_flow_8,4,2_ + 1 int_ex_flow_3_2,4,2_ + 1 int_ex_flow_3_3,4,2_ - 1 int_ex_flow_3_6,4,2_ = 0.09531370584035605
c377: 1 shared_cand_flow_3,1,1_ + 1 shared_cand_flow_5,1,1_ - 1 shared_ex_flow_4,1,1_ - 1 shared_ex_flow_7,1,1_ + 1 int_ex_flow_3_4,1,1_ + 1 int_ex_flow_3_6,1,1_ - 1 int_ex_flow_3_7,1,1_ = 0.1061081988865669
c378: 1 shared_cand_flow_3,2,1_ + 1 shared_cand_flow_5,2,1_ - 1 shared_ex_flow_4,2,1_ - 1 shared_ex_flow_7,2,1_ + 1 int_ex_flow_3_4,2,1_ + 1 int_ex_flow_3_6,2,1_ - 1 int_ex_flow_3_7,2,1_ = 0.18109121853130083
c379: 1 shared_cand_flow_3,3,1_ + 1 shared_cand_flow_5,3,1_ - 1 shared_ex_flow_4,3,1_ - 1 shared_ex_flow_7,3,1_ + 1 int_ex_flow_3_4,3,1_ + 1 int_ex_flow_3_6,3,1_ - 1 int_ex_flow_3_7,3,1_ = 0.07615239463783877
c380: 1 shared_cand_flow_3,4,1_ + 1 shared_cand_flow_5,4,1_ - 1 shared_ex_flow_4,4,1_ - 1 shared_ex_flow_7,4,1_ + 1 int_ex_flow_3_4,4,1_ + 1 int_ex_flow_3_6,4,1_ - 1 int_ex_flow_3_7,4,1_ = 0.08232376752191094
c381: 1 shared_cand_flow_3,1,2_ + 1 shared_cand_flow_5,1,2_ - 1 shared_ex_flow_4,1,2_ - 1 shared_ex_flow_7,1,2_ + 1 int_ex_flow_3_4,1,2_ + 1 int_ex_flow_3_6,1,2_ - 1 int_ex_flow_3_7,1,2_ = 0.21572770349189324
c382: 1 shared_cand_flow_3,2,2_ + 1 shared_cand_flow_5,2,2_ - 1 shared_ex_flow_4,2,2_ - 1 shared_ex_flow_7,2,2_ + 1 int_ex_flow_3_4,2,2_ + 1 int_ex_flow_3_6,2,2_ - 1 int_ex_flow_3_7,2,2_ = 0.034370925010627995
c383: 1 shared_cand_flow_3,3,2_ + 1 shared_cand_flow_5,3,2_ - 1 shared_ex_flow_4,3,2_ - 1 shared_ex_flow_7,3,2_ + 1 int_ex_flow_3_4,3,2_ + 1 int_ex_flow_3_6,3,2_ - 1 int_ex_flow_3_7,3,2_ = 0.0495245507408827
c384: 1 shared_cand_flow_3,4,2_ + 1 shared_cand_flow_5,4,2_ - 1 shared_ex_flow_4,4,2_ - 1 shared_ex_flow_7,4,2_ + 1 int_ex_flow_3_4,4,2_ + 1 int_ex_flow_3_6,4,2_ - 1 int_ex_flow_3_7,4,2_ = 0.07089537539556076
c385: -1 shared_cand_flow_2,1,1_ - 1 int_cand_flow_3_2,1,1_ + 1 shared_ex_flow_4,1,1_ + 1 shared_ex_flow_7,1,1_ + 1 int_ex_flow_3_5,1,1_ + 1 int_ex_flow_3_7,1,1_ = 0.40772265479699493
c386: -1 shared_cand_flow_2,2,1_ - 1 int_cand_flow_3_2,2,1_ + 1 shared_ex_flow_4,2,1_ + 1 shared_ex_flow_7,2,1_ + 1 int_ex_flow_3_5,2,1_ + 1 int_ex_flow_3_7,2,1_ = 0.22159710243138783
c387: -1 shared_cand_flow_2,3,1_ - 1 int_cand_flow_3_2,3,1_ + 1 shared_ex_flow_4,3,1_ + 1 shared_ex_flow_7,3,1_ + 1 int_ex_flow_3_5,3,1_ + 1 int_ex_flow_3_7,3,1_ = 0.09012177316860966
c388: -1 shared_cand_flow_2,4,1_ - 1 int_cand_flow_3_2,4,1_ + 1 shared_ex_flow_4,4,1_ + 1 shared_ex_flow_7,4,1_ + 1 int_ex_flow_3_5,4,1_ + 1 int_ex_flow_3_7,4,1_ = 0.016345145420733703
c389: -1 shared_cand_flow_2,1,2_ - 1 int_cand_flow_3_2,1,2_ + 1 shared_ex_flow_4,1,2_ + 1 shared_ex_flow_7,1,2_ + 1 int_ex_flow_3_5,1,2_ + 1 int_ex_flow_3_7,1,2_ = 0.04816876552596603
c390: -1 shared_cand_flow_2,2,2_ - 1 int_cand_flow_3_2,2,2_ + 1 shared_ex_flow_4,2,2_ + 1 shared_ex_flow_7,2,2_ + 1 int_ex_flow_3_5,2,2_ + 1 int_ex_flow_3_7,2,2_ = 0.04387732714721443
c391: -1 shared_cand_flow_2,3,2_ - 1 int_cand_flow_3_2,3,2_ + 1 shared_ex_flow_4,3,2_ + 1 shared_ex_flow_7,3,2_ + 1 int_ex_flow_3_5,3,2_ + 1 int_ex_flow_3_7,3,2_ = 0.11890885671703993
c392: -1 shared_cand_flow_2,4,2_ - 1 int_cand_flow_3_2,4,2_ + 1 shared_ex_flow_4,4,2_ + 1 shared_ex_flow_7,4,2_ + 1 int_ex_flow_3_5,4,2_ + 1 int_ex_flow_3_7,4,2_ = 0.08108495675307527
c393: 3.7037037037037033 node_voltage_phase_angle_1,7,1,1_ - 3.7037037037037033 node_voltage_phase_angle_2,19,1,1_ + 1 shared_ex_flow_1,1,1_ = 0
c394: 3.7037037037037033 node_voltage_phase_angle_1,7,2,1_ - 3.7037037037037033 node_voltage_phase_angle_2,19,2,1_ + 1 shared_ex_flow_1,2,1_ = 0
c395: 3.7037037037037033 node_voltage_phase_angle_1,7,3,1_ - 3.7037037037037033 node_voltage_phase_angle_2,19,3,1_ + 1 shared_ex_flow_1,3,1_ = 0
c396: 3.7037037037037033 node_voltage_phase_angle_1,7,4,1_ - 3.7037037037037033 node_voltage_phase_angle_2,19,4,1_ + 1 shared_ex_flow_1,4,1_ = 0
c397: 3.7037037037037033 node_voltage_phase_angle_1,7,1,2_ - 3.7037037037037033 node_voltage_phase_angle_2,19,1,2_ + 1 shared_ex_flow_1,1,2_ = 0
c398: 3.7037037037037033 node_voltage_phase_angle_1,7,2,2_ - 3.7037037037037033 node_voltage_phase_angle_2,19,2,2_ + 1 shared_ex_flow_1,2,2_ = 0
c399: 3.7037037037037033 node_voltage_phase_angle_1,7,3,2_ - 3.7037037037037033 node_voltage_phase_angle_2,19,3,2_ + 1 shared_ex_flow_1,3,2_ = 0
c400: 3.7037037037037033 node_voltage_phase_angle_1,7,4,2_ - 3.7037037037037033 node_voltage_phase_angle_2,19,4,2_ + 1 shared_ex_flow_1,4,2_ = 0
c401: -3.037667071688943 node_voltage_phase_angle_1,10,1,1_ + 3.037667071688943 node_voltage_phase_angle_2,9,1,1_ + 1 shared_ex_flow_2,1,1_ = 0
c402: -3.037667071688943 node_voltage_phase_angle_1,10,2,1_ + 3.037667071688943 node_voltage_phase_angle_2,9,2,1_ + 1 shared_ex_flow_2,2,1_ = 0
c403: -3.037667071688943 node_voltage_phase_angle_1,10,3,1_ + 3.037667071688943 node_voltage_phase_angle_2,9,3,1_ + 1 shared_ex_flow_2,3,1_ = 0
c404: -3.037667071688943 node_voltage_phase_angle_1,10,4,1_ + 3.037667071688943 node_voltage_phase_angle_2,9,4,1_ + 1 shared_ex_flow_2,4,1_ = 0
c405: -3.037667071688943 node_voltage_phase_angle_1,10,1,2_ + 3.037667071688943 node_voltage_phase_angle_2,9,1,2_ + 1 shared_ex_flow_2,1,2_ = 0
c406: -3.037667071688943 node_voltage_phase_angle_1,10,2,2_ + 3.037667071688943 node_voltage_phase_angle_2,9,2,2_ + 1 shared_ex_flow_2,2,2_ = 0
c407: -3.037667071688943 node_voltage_phase_angle_1,10,3,2_ + 3.037667071688943 node_voltage_phase_angle_2,9,3,2_ + 1 shared_ex_flow_2,3,2_ = 0
c408: -3.037667071688943 node_voltage_phase_angle_1,10,4,2_ + 3.037667071688943 node_voltage_phase_angle_2,9,4,2_ + 1 shared_ex_flow_2,4,2_ = 0
c409: 4.8076923076923075 node_voltage_phase_angle_1,1,1,1_ - 4.8076923076923075 node_voltage_phase_angle_3,1,1,1_ + 1 shared_ex_flow_3,1,1_ = 0
c410: 4.8076923076923075 node_voltage_phase_angle_1,1,2,1_ - 4.8076923076923075 node_voltage_phase_angle_3,1,2,1_ + 1 shared_ex_flow_3,2,1_ = 0
c411: 4.8076923076923075 node_voltage_phase_angle_1,1,3,1_ - 4.8076923076923075 node_voltage_phase_angle_3,1,3,1_ + 1 shared_ex_flow_3,3,1_ = 0
c412: 4.8076923076923075 node_voltage_phase_angle_1,1,4,1_ - 4.8076923076923075 node_voltage_phase_angle_3,1,4,1_ + 1 shared_ex_flow_3,4,1_ = 0
c413: 4.8076923076923075 node_voltage_phase_angle_1,1,1,2_ - 4.8076923076923075 node_voltage_phase_angle_3,1,1,2_ + 1 shared_ex_flow_3,1,2_ = 0
c414: 4.8076923076923075 node_voltage_phase_angle_1,1,2,2_ - 4.8076923076923075 node_voltage_phase_angle_3,1,2,2_ + 1 shared_ex_flow_3,2,2_ = 0
c415: 4.8076923076923075 node_voltage_phase_angle_1,1,3,2_ - 4.8076923076923075 node_voltage_phase_angle_3,1,3,2_ + 1 shared_ex_flow_3,3,2_ = 0
c416: 4.8076923076923075 node_voltage_phase_angle_1,1,4,2_ - 4.8076923076923075 node_voltage_phase_angle_3,1,4,2_ + 1 shared_ex_flow_3,4,2_ = 0
c417: 1.7985611510791366 node_voltage_phase_angle_1,5,1,1_ - 1.7985611510791366 node_voltage_phase_angle_3,4,1,1_ + 1 shared_ex_flow_4,1,1_ = 0
c418: 1.7985611510791366 node_voltage_phase_angle_1,5,2,1_ - 1.7985611510791366 node_voltage_phase_angle_3,4,2,1_ + 1 shared_ex_flow_4,2,1_ = 0
c419: 1.7985611510791366 node_voltage_phase_angle_1,5,3,1_ - 1.7985611510791366 node_voltage_phase_angle_3,4,3,1_ + 1 shared_ex_flow_4,3,1_ = 0
c420: 1.7985611510791366 node_voltage_phase_angle_1,5,4,1_ - 1.7985611510791366 node_voltage_phase_angle_3,4,4,1_ + 1 shared_ex_flow_4,4,1_ = 0
c421: 1.7985611510791366 node_voltage_phase_angle_1,5,1,2_ - 1.7985611510791366 node_voltage_phase_angle_3,4,1,2_ + 1 shared_ex_flow_4,1,2_ = 0
c422: 1.7985611510791366 node_voltage_phase_angle_1,5,2,2_ - 1.7985611510791366 node_voltage_phase_angle_3,4,2,2_ + 1 shared_ex_flow_4,2,2_ = 0
c423: 1.7985611510791366 node_voltage_phase_angle_1,5,3,2_ - 1.7985611510791366 node_voltage_phase_angle_3,4,3,2_ + 1 shared_ex_flow_4,3,2_ = 0
c424: 1.7985611510791366 node_voltage_phase_angle_1,5,4,2_ - 1.7985611510791366 node_voltage_phase_angle_3,4,4,2_ + 1 shared_ex_flow_4,4,2_ = 0
c425: -16.69449081803005 node_voltage_phase_angle_1,12,1,1_ + 16.69449081803005 node_voltage_phase_angle_3,1,1,1_ + 1 shared_ex_flow_5,1,1_ = 0
c426: -16.69449081803005 node_voltage_phase_angle_1,12,2,1_ + 16.69449081803005 node_voltage_phase_angle_3,1,2,1_ + 1 shared_ex_flow_5,2,1_ = 0
c427: -16.69449081803005 node_voltage_phase_angle_1,12,3,1_ + 16.69449081803005 node_voltage_phase_angle_3,1,3,1_ + 1 shared_ex_flow_5,3,1_ = 0
c428: -16.69449081803005 node_voltage_phase_angle_1,12,4,1_ + 16.69449081803005 node_voltage_phase_angle_3,1,4,1_ + 1 shared_ex_flow_5,4,1_ = 0
c429: -16.69449081803005 node_voltage_phase_angle_1,12,1,2_ + 16.69449081803005 node_voltage_phase_angle_3,1,1,2_ + 1 shared_ex_flow_5,1,2_ = 0
c430: -16.69449081803005 node_voltage_phase_angle_1,12,2,2_ + 16.69449081803005 node_voltage_phase_angle_3,1,2,2_ + 1 shared_ex_flow_5,2,2_ = 0
c431: -16.69449081803005 node_voltage_phase_angle_1,12,3,2_ + 16.69449081803005 node_voltage_phase_angle_3,1,3,2_ + 1 shared_ex_flow_5,3,2_ = 0
c432: -16.69449081803005 node_voltage_phase_angle_1,12,4,2_ + 16.69449081803005 node_voltage_phase_angle_3,1,4,2_ + 1 shared_ex_flow_5,4,2_ = 0
c433: -5 node_voltage_phase_angle_2,25,1,1_ + 5 node_voltage_phase_angle_3,2,1,1_ + 1 shared_ex_flow_6,1,1_ = 0
c434: -5 node_voltage_phase_angle_2,25,2,1_ + 5 node_voltage_phase_angle_3,2,2,1_ + 1 shared_ex_flow_6,2,1_ = 0
c435: -5 node_voltage_phase_angle_2,25,3,1_ + 5 node_voltage_phase_angle_3,2,3,1_ + 1 shared_ex_flow_6,3,1_ = 0
c436: -5 node_voltage_phase_angle_2,25,4,1_ + 5 node_voltage_phase_angle_3,2,4,1_ + 1 shared_ex_flow_6,4,1_ = 0
c437: -5 node_voltage_phase_angle_2,25,1,2_ + 5 node_voltage_phase_angle_3,2,1,2_ + 1 shared_ex_flow_6,1,2_ = 0
c438: -5 node_voltage_phase_angle_2,25,2,2_ + 5 node_voltage_phase_angle_3,2,2,2_ + 1 shared_ex_flow_6,2,2_ = 0
c439: -5 node_voltage_phase_angle_2,25,3,2_ + 5 node_voltage_phase_angle_3,2,3,2_ + 1 shared_ex_flow_6,3,2_ = 0
c440: -5 node_voltage_phase_angle_2,25,4,2_ + 5 node_voltage_phase_angle_3,2,4,2_ + 1 shared_ex_flow_6,4,2_ = 0
c441: -9.090909090909092 node_voltage_phase_angle_2,4,1,1_ + 9.090909090909092 node_voltage_phase_angle_3,5,1,1_ + 1 shared_ex_flow_7,1,1_ = 0
c442: -9.090909090909092 node_voltage_phase_angle_2,4,2,1_ + 9.090909090909092 node_voltage_phase_angle_3,5,2,1_ + 1 shared_ex_flow_7,2,1_ = 0
c443: -9.090909090909092 node_voltage_phase_angle_2,4,3,1_ + 9.090909090909092 node_voltage_phase_angle_3,5,3,1_ + 1 shared_ex_flow_7,3,1_ = 0
c444: -9.090909090909092 node_voltage_phase_angle_2,4,4,1_ + 9.090909090909092 node_voltage_phase_angle_3,5,4,1_ + 1 shared_ex_flow_7,4,1_ = 0
c445: -9.090909090909092 node_voltage_phase_angle_2,4,1,2_ + 9.090909090909092 node_voltage_phase_angle_3,5,1,2_ + 1 shared_ex_flow_7,1,2_ = 0
c446: -9.090909090909092 node_voltage_phase_angle_2,4,2,2_ + 9.090909090909092 node_voltage_phase_angle_3,5,2,2_ + 1 shared_ex_flow_7,2,2_ = 0
c447: -9.090909090909092 node_voltage_phase_angle_2,4,3,2_ + 9.090909090909092 node_voltage_phase_angle_3,5,3,2_ + 1 shared_ex_flow_7,3,2_ = 0
c448: -9.090909090909092 node_voltage_phase_angle_2,4,4,2_ + 9.090909090909092 node_voltage_phase_angle_3,5,4,2_ + 1 shared_ex_flow_7,4,2_ = 0
c449: 4.8076923076923075 node_voltage_phase_angle_2,22,1,1_ - 4.8076923076923075 node_voltage_phase_angle_3,3,1,1_ + 1 shared_ex_flow_8,1,1_ = 0
c450: 4.8076923076923075 node_voltage_phase_angle_2,22,2,1_ - 4.8076923076923075 node_voltage_phase_angle_3,3,2,1_ + 1 shared_ex_flow_8,2,1_ = 0
c451: 4.8076923076923075 node_voltage_phase_angle_2,22,3,1_ - 4.8076923076923075 node_voltage_phase_angle_3,3,3,1_ + 1 shared_ex_flow_8,3,1_ = 0
c452: 4.8076923076923075 node_voltage_phase_angle_2,22,4,1_ - 4.8076923076923075 node_voltage_phase_angle_3,3,4,1_ + 1 shared_ex_flow_8,4,1_ = 0
c453: 4.8076923076923075 node_voltage_phase_angle_2,22,1,2_ - 4.8076923076923075 node_voltage_phase_angle_3,3,1,2_ + 1 shared_ex_flow_8,1,2_ = 0
c454: 4.8076923076923075 node_voltage_phase_angle_2,22,2,2_ - 4.8076923076923075 node_voltage_phase_angle_3,3,2,2_ + 1 shared_ex_flow_8,2,2_ = 0
c455: 4.8076923076923075 node_voltage_phase_angle_2,22,3,2_ - 4.8076923076923075 node_voltage_phase_angle_3,3,3,2_ + 1 shared_ex_flow_8,3,2_ = 0
c456: 4.8076923076923075 node_voltage_phase_angle_2,22,4,2_ - 4.8076923076923075 node_voltage_phase_angle_3,3,4,2_ + 1 shared_ex_flow_8,4,2_ = 0
c457: -16.900456312320433 node_voltage_phase_angle_1,1,1,1_ + 16.900456312320433 node_voltage_phase_angle_1,2,1,1_ + 1 int_ex_flow_1_1,1,1_ = 0
c458: -16.900456312320433 node_voltage_phase_angle_1,1,2,1_ + 16.900456312320433 node_voltage_phase_angle_1,2,2,1_ + 1 int_ex_flow_1_1,2,1_ = 0
c459: -16.900456312320433 node_voltage_phase_angle_1,1,3,1_ + 16.900456312320433 node_voltage_phase_angle_1,2,3,1_ + 1 int_ex_flow_1_1,3,1_ = 0
c460: -16.900456312320433 node_voltage_phase_angle_1,1,4,1_ + 16.900456312320433 node_voltage_phase_angle_1,2,4,1_ + 1 int_ex_flow_1_1,4,1_ = 0
c461: -16.900456312320433 node_voltage_phase_angle_1,1,1,2_ + 16.900456312320433 node_voltage_phase_angle_1,2,1,2_ + 1 int_ex_flow_1_1,1,2_ = 0
c462: -16.900456312320433 node_voltage_phase_angle_1,1,2,2_ + 16.900456312320433 node_voltage_phase_angle_1,2,2,2_ + 1 int_ex_flow_1_1,2,2_ = 0
c463: -16.900456312320433 node_voltage_phase_angle_1,1,3,2_ + 16.900456312320433 node_voltage_phase_angle_1,2,3,2_ + 1 int_ex_flow_1_1,3,2_ = 0
c464: -16.900456312320433 node_voltage_phase_angle_1,1,4,2_ + 16.900456312320433 node_voltage_phase_angle_1,2,4,2_ + 1 int_ex_flow_1_1,4,2_ = 0
c465: -4.483500717360115 node_voltage_phase_angle_1,1,1,1_ + 4.483500717360115 node_voltage_phase_angle_1,5,1,1_ + 1 int_ex_flow_1_2,1,1_ = 0
c466: -4.483500717360115 node_voltage_phase_angle_1,1,2,1_ + 4.483500717360115 node_voltage_phase_angle_1,5,2,1_ + 1 int_ex_flow_1_2,2,1_ = 0
c467: -4.483500717360115 node_voltage_phase_angle_1,1,3,1_ + 4.483500717360115 node_voltage_phase_angle_1,5,3,1_ + 1 int_ex_flow_1_2,3,1_ = 0
c468: -4.483500717360115 node_voltage_phase_angle_1,1,4,1_ + 4.483500717360115 node_voltage_phase_angle_1,5,4,1_ + 1 int_ex_flow_1_2,4,1_ = 0
c469: -4.483500717360115 node_voltage_phase_angle_1,1,1,2_ + 4.483500717360115 node_voltage_phase_angle_1,5,1,2_ + 1 int_ex_flow_1_2,1,2_ = 0
c470: -4.483500717360115 node_voltage_phase_angle_1,1,2,2_ + 4.483500717360115 node_voltage_phase_angle_1,5,2,2_ + 1 int_ex_flow_1_2,2,2_ = 0
c471: -4.483500717360115 node_voltage_phase_angle_1,1,3,2_ + 4.483500717360115 node_voltage_phase_angle_1,5,3,2_ + 1 int_ex_flow_1_2,3,2_ = 0
c472: -4.483500717360115 node_voltage_phase_angle_1,1,4,2_ + 4.483500717360115 node_voltage_phase_angle_1,5,4,2_ + 1 int_ex_flow_1_2,4,2_ = 0
c473: -5.051270394504217 node_voltage_phase_angle_1,2,1,1_ + 5.051270394504217 node_voltage_phase_angle_1,3,1,1_ + 1 int_ex_flow_1_3,1,1_ = 0
c474: -5.051270394504217 node_voltage_phase_angle_1,2,2,1_ + 5.051270394504217 node_voltage_phase_angle_1,3,2,1_ + 1 int_ex_flow_1_3,2,1_ = 0
c475: -5.051270394504217 node_voltage_phase_angle_1,2,3,1_ + 5.051270394504217 node_voltage_phase_angle_1,3,3,1_ + 1 int_ex_flow_1_3,3,1_ = 0
c476: -5.051270394504217 node_voltage_phase_angle_1,2,4,1_ + 5.051270394504217 node_voltage_phase_angle_1,3,4,1_ + 1 int_ex_flow_1_3,4,1_ = 0
c477: -5.051270394504217 node_voltage_phase_angle_1,2,1,2_ + 5.051270394504217 node_voltage_phase_angle_1,3,1,2_ + 1 int_ex_flow_1_3,1,2_ = 0
c478: -5.051270394504217 node_voltage_phase_angle_1,2,2,2_ + 5.051270394504217 node_voltage_phase_angle_1,3,2,2_ + 1 int_ex_flow_1_3,2,2_ = 0
c479: -5.051270394504217 node_voltage_phase_angle_1,2,3,2_ + 5.051270394504217 node_voltage_phase_angle_1,3,3,2_ + 1 int_ex_flow_1_3,3,2_ = 0
c480: -5.051270394504217 node_voltage_phase_angle_1,2,4,2_ + 5.051270394504217 node_voltage_phase_angle_1,3,4,2_ + 1 int_ex_flow_1_3,4,2_ = 0
c481: -5.671506352087114 node_voltage_phase_angle_1,2,1,1_ + 5.671506352087114 node_voltage_phase_angle_1,4,1,1_ + 1 int_ex_flow_1_4,1,1_ = 0
c482: -5.671506352087114 node_voltage_phase_angle_1,2,2,1_ + 5.671506352087114 node_voltage_phase_angle_1,4,2,1_ + 1 int_ex_flow_1_4,2,1_ = 0
c483: -5.671506352087114 node_voltage_phase_angle_1,2,3,1_ + 5.671506352087114 node_voltage_phase_angle_1,4,3,1_ + 1 int_ex_flow_1_4,3,1_ = 0
c484: -5.671506352087114 node_voltage_phase_angle_1,2,4,1_ + 5.671506352087114 node_voltage_phase_angle_1,4,4,1_ + 1 int_ex_flow_1_4,4,1_ = 0
c485: -5.671506352087114 node_voltage_phase_angle_1,2,1,2_ + 5.671506352087114 node_voltage_phase_angle_1,4,1,2_ + 1 int_ex_flow_1_4,1,2_ = 0
c486: -5.671506352087114 node_voltage_phase_angle_1,2,2,2_ + 5.671506352087114 node_voltage_phase_angle_1,4,2,2_ + 1 int_ex_flow_1_4,2,2_ = 0
c487: -5.671506352087114 node_voltage_phase_angle_1,2,3,2_ + 5.671506352087114 node_voltage_phase_angle_1,4,3,2_ + 1 int_ex_flow_1_4,3,2_ = 0
c488: -5.671506352087114 node_voltage_phase_angle_1,2,4,2_ + 5.671506352087114 node_voltage_phase_angle_1,4,4,2_ + 1 int_ex_flow_1_4,4,2_ = 0
c489: -5.751092707614447 node_voltage_phase_angle_1,2,1,1_ + 5.751092707614447 node_voltage_phase_angle_1,5,1,1_ + 1 int_ex_flow_1_5,1,1_ = 0
c490: -5.751092707614447 node_voltage_phase_angle_1,2,2,1_ + 5.751092707614447 node_voltage_phase_angle_1,5,2,1_ + 1 int_ex_flow_1_5,2,1_ = 0
c491: -5.751092707614447 node_voltage_phase_angle_1,2,3,1_ + 5.751092707614447 node_voltage_phase_angle_1,5,3,1_ + 1 int_ex_flow_1_5,3,1_ = 0
c492: -5.751092707614447 node_voltage_phase_angle_1,2,4,1_ + 5.751092707614447 node_voltage_phase_angle_1,5,4,1_ + 1 int_ex_flow_1_5,4,1_ = 0
c493: -5.751092707614447 node_voltage_phase_angle_1,2,1,2_ + 5.751092707614447 node_voltage_phase_angle_1,5,1,2_ + 1 int_ex_flow_1_5,1,2_ = 0
c494: -5.751092707614447 node_voltage_phase_angle_1,2,2,2_ + 5.751092707614447 node_voltage_phase_angle_1,5,2,2_ + 1 int_ex_flow_1_5,2,2_ = 0
c495: -5.751092707614447 node_voltage_phase_angle_1,2,3,2_ + 5.751092707614447 node_voltage_phase_angle_1,5,3,2_ + 1 int_ex_flow_1_5,3,2_ = 0
c496: -5.751092707614447 node_voltage_phase_angle_1,2,4,2_ + 5.751092707614447 node_voltage_phase_angle_1,5,4,2_ + 1 int_ex_flow_1_5,4,2_ = 0
c497: -5.846927439630474 node_voltage_phase_angle_1,3,1,1_ + 5.846927439630474 node_voltage_phase_angle_1,4,1,1_ + 1 int_ex_flow_1_6,1,1_ = 0
c498: -5.846927439630474 node_voltage_phase_angle_1,3,2,1_ + 5.846927439630474 node_voltage_phase_angle_1,4,2,1_ + 1 int_ex_flow_1_6,2,1_ = 0
c499: -5.846927439630474 node_voltage_phase_angle_1,3,3,1_ + 5.846927439630474 node_voltage_phase_angle_1,4,3,1_ + 1 int_ex_flow_1_6,3,1_ = 0
c500: -5.846927439630474 node_voltage_phase_angle_1,3,4,1_ + 5.846927439630474 node_voltage_phase_angle_1,4,4,1_ + 1 int_ex_flow_1_6,4,1_ = 0
c501: -5.846927439630474 node_voltage_phase_angle_1,3,1,2_ + 5.846927439630474 node_voltage_phase_angle_1,4,1,2_ + 1 int_ex_flow_1_6,1,2_ = 0
c502: -5.846927439630474 node_voltage_phase_angle_1,3,2,2_ + 5.846927439630474 node_voltage_phase_angle_1,4,2,2_ + 1 int_ex_flow_1_6,2,2_ = 0
c503: -5.846927439630474 node_voltage_phase_angle_1,3,3,2_ + 5.846927439630474 node_voltage_phase_angle_1,4,3,2_ + 1 int_ex_flow_1_6,3,2_ = 0
c504: -5.846927439630474 node_voltage_phase_angle_1,3,4,2_ + 5.846927439630474 node_voltage_phase_angle_1,4,4,2_ + 1 int_ex_flow_1_6,4,2_ = 0
c505: -23.747328425552123 node_voltage_phase_angle_1,4,1,1_ + 23.747328425552123 node_voltage_phase_angle_1,5,1,1_ + 1 int_ex_flow_1_7,1,1_ = 0
c506: -23.747328425552123 node_voltage_phase_angle_1,4,2,1_ + 23.747328425552123 node_voltage_phase_angle_1,5,2,1_ + 1 int_ex_flow_1_7,2,1_ = 0
c507: -23.747328425552123 node_voltage_phase_angle_1,4,3,1_ + 23.747328425552123 node_voltage_phase_angle_1,5,3,1_ + 1 int_ex_flow_1_7,3,1_ = 0
c508: -23.747328425552123 node_voltage_phase_angle_1,4,4,1_ + 23.747328425552123 node_voltage_phase_angle_1,5,4,1_ + 1 int_ex_flow_1_7,4,1_ = 0
c509: -23.747328425552123 node_voltage_phase_angle_1,4,1,2_ + 23.747328425552123 node_voltage_phase_angle_1,5,1,2_ + 1 int_ex_flow_1_7,1,2_ = 0
c510: -23.747328425552123 node_voltage_phase_angle_1,4,2,2_ + 23.747328425552123 node_voltage_phase_angle_1,5,2,2_ + 1 int_ex_flow_1_7,2,2_ = 0
c511: -23.747328425552123 node_voltage_phase_angle_1,4,3,2_ + 23.747328425552123 node_voltage_phase_angle_1,5,3,2_ + 1 int_ex_flow_1_7,3,2_ = 0
c512: -23.747328425552123 node_voltage_phase_angle_1,4,4,2_ + 23.747328425552123 node_voltage_phase_angle_1,5,4,2_ + 1 int_ex_flow_1_7,4,2_ = 0
c513: -4.781943381790359 node_voltage_phase_angle_1,4,1,1_ + 4.781943381790359 node_voltage_phase_angle_1,7,1,1_ + 1 int_ex_flow_1_8,1,1_ = 0
c514: -4.781943381790359 node_voltage_phase_angle_1,4,2,1_ + 4.781943381790359 node_voltage_phase_angle_1,7,2,1_ + 1 int_ex_flow_1_8,2,1_ = 0
c515: -4.781943381790359 node_voltage_phase_angle_1,4,3,1_ + 4.781943381790359 node_voltage_phase_angle_1,7,3,1_ + 1 int_ex_flow_1_8,3,1_ = 0
c516: -4.781943381790359 node_voltage_phase_angle_1,4,4,1_ + 4.781943381790359 node_voltage_phase_angle_1,7,4,1_ + 1 int_ex_flow_1_8,4,1_ = 0
c517: -4.781943381790359 node_voltage_phase_angle_1,4,1,2_ + 4.781943381790359 node_voltage_phase_angle_1,7,1,2_ + 1 int_ex_flow_1_8,1,2_ = 0
c518: -4.781943381790359 node_voltage_phase_angle_1,4,2,2_ + 4.781943381790359 node_voltage_phase_angle_1,7,2,2_ + 1 int_ex_flow_1_8,2,2_ = 0
c519: -4.781943381790359 node_voltage_phase_angle_1,4,3,2_ + 4.781943381790359 node_voltage_phase_angle_1,7,3,2_ + 1 int_ex_flow_1_8,3,2_ = 0
c520: -4.781943381790359 node_voltage_phase_angle_1,4,4,2_ + 4.781943381790359 node_voltage_phase_angle_1,7,4,2_ + 1 int_ex_flow_1_8,4,2_ = 0
c521: -1.7979790715236075 node_voltage_phase_angle_1,4,1,1_ + 1.7979790715236075 node_voltage_phase_angle_1,9,1,1_ + 1 int_ex_flow_1_9,1,1_ = 0
c522: -1.7979790715236075 node_voltage_phase_angle_1,4,2,1_ + 1.7979790715236075 node_voltage_phase_angle_1,9,2,1_ + 1 int_ex_flow_1_9,2,1_ = 0
c523: -1.7979790715236075 node_voltage_phase_angle_1,4,3,1_ + 1.7979790715236075 node_voltage_phase_angle_1,9,3,1_ + 1 int_ex_flow_1_9,3,1_ = 0
c524: -1.7979790715236075 node_voltage_phase_angle_1,4,4,1_ + 1.7979790715236075 node_voltage_phase_angle_1,9,4,1_ + 1 int_ex_flow_1_9,4,1_ = 0
c525: -1.7979790715236075 node_voltage_phase_angle_1,4,1,2_ + 1.7979790715236075 node_voltage_phase_angle_1,9,1,2_ + 1 int_ex_flow_1_9,1,2_ = 0
c526: -1.7979790715236075 node_voltage_phase_angle_1,4,2,2_ + 1.7979790715236075 node_voltage_phase_angle_1,9,2,2_ + 1 int_ex_flow_1_9,2,2_ = 0
c527: -1.7979790715236075 node_voltage_phase_angle_1,4,3,2_ + 1.7979790715236075 node_voltage_phase_angle_1,9,3,2_ + 1 int_ex_flow_1_9,3,2_ = 0
c528: -1.7979790715236075 node_voltage_phase_angle_1,4,4,2_ + 1.7979790715236075 node_voltage_phase_angle_1,9,4,2_ + 1 int_ex_flow_1_9,4,2_ = 0
c529: -3.967939052456154 node_voltage_phase_angle_1,5,1,1_ + 3.967939052456154 node_voltage_phase_angle_1,6,1,1_ + 1 int_ex_flow_1_10,1,1_ = 0
c530: -3.967939052456154 node_voltage_phase_angle_1,5,2,1_ + 3.967939052456154 node_voltage_phase_angle_1,6,2,1_ + 1 int_ex_flow_1_10,2,1_ = 0
c531: -3.967939052456154 node_voltage_phase_angle_1,5,3,1_ + 3.967939052456154 node_voltage_phase_angle_1,6,3,1_ + 1 int_ex_flow_1_10,3,1_ = 0
c532: -3.967939052456154 node_voltage_phase_angle_1,5,4,1_ + 3.967939052456154 node_voltage_phase_angle_1,6,4,1_ + 1 int_ex_flow_1_10,4,1_ = 0
c533: -3.967939052456154 node_voltage_phase_angle_1,5,1,2_ + 3.967939052456154 node_voltage_phase_angle_1,6,1,2_ + 1 int_ex_flow_1_10,1,2_ = 0
c534: -3.967939052456154 node_voltage_phase_angle_1,5,2,2_ + 3.967939052456154 node_voltage_phase_angle_1,6,2,2_ + 1 int_ex_flow_1_10,2,2_ = 0
c535: -3.967939052456154 node_voltage_phase_angle_1,5,3,2_ + 3.967939052456154 node_voltage_phase_angle_1,6,3,2_ + 1 int_ex_flow_1_10,3,2_ = 0
c536: -3.967939052456154 node_voltage_phase_angle_1,5,4,2_ + 3.967939052456154 node_voltage_phase_angle_1,6,4,2_ + 1 int_ex_flow_1_10,4,2_ = 0
c537: -5.027652086475616 node_voltage_phase_angle_1,6,1,1_ + 5.027652086475616 node_voltage_phase_angle_1,11,1,1_ + 1 int_ex_flow_1_11,1,1_ = 0
c538: -5.027652086475616 node_voltage_phase_angle_1,6,2,1_ + 5.027652086475616 node_voltage_phase_angle_1,11,2,1_ + 1 int_ex_flow_1_11,2,1_ = 0
c539: -5.027652086475616 node_voltage_phase_angle_1,6,3,1_ + 5.027652086475616 node_voltage_phase_angle_1,11,3,1_ + 1 int_ex_flow_1_11,3,1_ = 0
c540: -5.027652086475616 node_voltage_phase_angle_1,6,4,1_ + 5.027652086475616 node_voltage_phase_angle_1,11,4,1_ + 1 int_ex_flow_1_11,4,1_ = 0
c541: -5.027652086475616 node_voltage_phase_angle_1,6,1,2_ + 5.027652086475616 node_voltage_phase_angle_1,11,1,2_ + 1 int_ex_flow_1_11,1,2_ = 0
c542: -5.027652086475616 node_voltage_phase_angle_1,6,2,2_ + 5.027652086475616 node_voltage_phase_angle_1,11,2,2_ + 1 int_ex_flow_1_11,2,2_ = 0
c543: -5.027652086475616 node_voltage_phase_angle_1,6,3,2_ + 5.027652086475616 node_voltage_phase_angle_1,11,3,2_ + 1 int_ex_flow_1_11,3,2_ = 0
c544: -5.027652086475616 node_voltage_phase_angle_1,6,4,2_ + 5.027652086475616 node_voltage_phase_angle_1,11,4,2_ + 1 int_ex_flow_1_11,4,2_ = 0
c545: -3.9091513232477233 node_voltage_phase_angle_1,6,1,1_ + 3.9091513232477233 node_voltage_phase_angle_1,12,1,1_ + 1 int_ex_flow_1_12,1,1_ = 0
c546: -3.9091513232477233 node_voltage_phase_angle_1,6,2,1_ + 3.9091513232477233 node_voltage_phase_angle_1,12,2,1_ + 1 int_ex_flow_1_12,2,1_ = 0
c547: -3.9091513232477233 node_voltage_phase_angle_1,6,3,1_ + 3.9091513232477233 node_voltage_phase_angle_1,12,3,1_ + 1 int_ex_flow_1_12,3,1_ = 0
c548: -3.9091513232477233 node_voltage_phase_angle_1,6,4,1_ + 3.9091513232477233 node_voltage_phase_angle_1,12,4,1_ + 1 int_ex_flow_1_12,4,1_ = 0
c549: -3.9091513232477233 node_voltage_phase_angle_1,6,1,2_ + 3.9091513232477233 node_voltage_phase_angle_1,12,1,2_ + 1 int_ex_flow_1_12,1,2_ = 0
c550: -3.9091513232477233 node_voltage_phase_angle_1,6,2,2_ + 3.9091513232477233 node_voltage_phase_angle_1,12,2,2_ + 1 int_ex_flow_1_12,2,2_ = 0
c551: -3.9091513232477233 node_voltage_phase_angle_1,6,3,2_ + 3.9091513232477233 node_voltage_phase_angle_1,12,3,2_ + 1 int_ex_flow_1_12,3,2_ = 0
c552: -3.9091513232477233 node_voltage_phase_angle_1,6,4,2_ + 3.9091513232477233 node_voltage_phase_angle_1,12,4,2_ + 1 int_ex_flow_1_12,4,2_ = 0
c553: -7.676364473785216 node_voltage_phase_angle_1,6,1,1_ + 7.676364473785216 node_voltage_phase_angle_1,13,1,1_ + 1 int_ex_flow_1_13,1,1_ = 0
c554: -7.676364473785216 node_voltage_phase_angle_1,6,2,1_ + 7.676364473785216 node_voltage_phase_angle_1,13,2,1_ + 1 int_ex_flow_1_13,2,1_ = 0
c555: -7.676364473785216 node_voltage_phase_angle_1,6,3,1_ + 7.676364473785216 node_voltage_phase_angle_1,13,3,1_ + 1 int_ex_flow_1_13,3,1_ = 0
c556: -7.676364473785216 node_voltage_phase_angle_1,6,4,1_ + 7.676364473785216 node_voltage_phase_angle_1,13,4,1_ + 1 int_ex_flow_1_13,4,1_ = 0
c557: -7.676364473785216 node_voltage_phase_angle_1,6,1,2_ + 7.676364473785216 node_voltage_phase_angle_1,13,1,2_ + 1 int_ex_flow_1_13,1,2_ = 0
c558: -7.676364473785216 node_voltage_phase_angle_1,6,2,2_ + 7.676364473785216 node_voltage_phase_angle_1,13,2,2_ + 1 int_ex_flow_1_13,2,2_ = 0
c559: -7.676364473785216 node_voltage_phase_angle_1,6,3,2_ + 7.676364473785216 node_voltage_phase_angle_1,13,3,2_ + 1 int_ex_flow_1_13,3,2_ = 0
c560: -7.676364473785216 node_voltage_phase_angle_1,6,4,2_ + 7.676364473785216 node_voltage_phase_angle_1,13,4,2_ + 1 int_ex_flow_1_13,4,2_ = 0
c561: -5.676979846721544 node_voltage_phase_angle_1,7,1,1_ + 5.676979846721544 node_voltage_phase_angle_1,8,1,1_ + 1 int_ex_flow_1_14,1,1_ = 0
c562: -5.676979846721544 node_voltage_phase_angle_1,7,2,1_ + 5.676979846721544 node_voltage_phase_angle_1,8,2,1_ + 1 int_ex_flow_1_14,2,1_ = 0
c563: -5.676979846721544 node_voltage_phase_angle_1,7,3,1_ + 5.676979846721544 node_voltage_phase_angle_1,8,3,1_ + 1 int_ex_flow_1_14,3,1_ = 0
c564: -5.676979846721544 node_voltage_phase_angle_1,7,4,1_ + 5.676979846721544 node_voltage_phase_angle_1,8,4,1_ + 1 int_ex_flow_1_14,4,1_ = 0
c565: -5.676979846721544 node_voltage_phase_angle_1,7,1,2_ + 5.676979846721544 node_voltage_phase_angle_1,8,1,2_ + 1 int_ex_flow_1_14,1,2_ = 0
c566: -5.676979846721544 node_voltage_phase_angle_1,7,2,2_ + 5.676979846721544 node_voltage_phase_angle_1,8,2,2_ + 1 int_ex_flow_1_14,2,2_ = 0
c567: -5.676979846721544 node_voltage_phase_angle_1,7,3,2_ + 5.676979846721544 node_voltage_phase_angle_1,8,3,2_ + 1 int_ex_flow_1_14,3,2_ = 0
c568: -5.676979846721544 node_voltage_phase_angle_1,7,4,2_ + 5.676979846721544 node_voltage_phase_angle_1,8,4,2_ + 1 int_ex_flow_1_14,4,2_ = 0
c569: -9.09008271975275 node_voltage_phase_angle_1,7,1,1_ + 9.09008271975275 node_voltage_phase_angle_1,9,1,1_ + 1 int_ex_flow_1_15,1,1_ = 0
c570: -9.09008271975275 node_voltage_phase_angle_1,7,2,1_ + 9.09008271975275 node_voltage_phase_angle_1,9,2,1_ + 1 int_ex_flow_1_15,2,1_ = 0
c571: -9.09008271975275 node_voltage_phase_angle_1,7,3,1_ + 9.09008271975275 node_voltage_phase_angle_1,9,3,1_ + 1 int_ex_flow_1_15,3,1_ = 0
c572: -9.09008271975275 node_voltage_phase_angle_1,7,4,1_ + 9.09008271975275 node_voltage_phase_angle_1,9,4,1_ + 1 int_ex_flow_1_15,4,1_ = 0
c573: -9.09008271975275 node_voltage_phase_angle_1,7,1,2_ + 9.09008271975275 node_voltage_phase_angle_1,9,1,2_ + 1 int_ex_flow_1_15,1,2_ = 0
c574: -9.09008271975275 node_voltage_phase_angle_1,7,2,2_ + 9.09008271975275 node_voltage_phase_angle_1,9,2,2_ + 1 int_ex_flow_1_15,2,2_ = 0
c575: -9.09008271975275 node_voltage_phase_angle_1,7,3,2_ + 9.09008271975275 node_voltage_phase_angle_1,9,3,2_ + 1 int_ex_flow_1_15,3,2_ = 0
c576: -9.09008271975275 node_voltage_phase_angle_1,7,4,2_ + 9.09008271975275 node_voltage_phase_angle_1,9,4,2_ + 1 int_ex_flow_1_15,4,2_ = 0
c577: -11.834319526627219 node_voltage_phase_angle_1,9,1,1_ + 11.834319526627219 node_voltage_phase_angle_1,10,1,1_ + 1 int_ex_flow_1_16,1,1_ = 0
c578: -11.834319526627219 node_voltage_phase_angle_1,9,2,1_ + 11.834319526627219 node_voltage_phase_angle_1,10,2,1_ + 1 int_ex_flow_1_16,2,1_ = 0
c579: -11.834319526627219 node_voltage_phase_angle_1,9,3,1_ + 11.834319526627219 node_voltage_phase_angle_1,10,3,1_ + 1 int_ex_flow_1_16,3,1_ = 0
c580: -11.834319526627219 node_voltage_phase_angle_1,9,4,1_ + 11.834319526627219 node_voltage_phase_angle_1,10,4,1_ + 1 int_ex_flow_1_16,4,1_ = 0
c581: -11.834319526627219 node_voltage_phase_angle_1,9,1,2_ + 11.834319526627219 node_voltage_phase_angle_1,10,1,2_ + 1 int_ex_flow_1_16,1,2_ = 0
c582: -11.834319526627219 node_voltage_phase_angle_1,9,2,2_ + 11.834319526627219 node_voltage_phase_angle_1,10,2,2_ + 1 int_ex_flow_1_16,2,2_ = 0
c583: -11.834319526627219 node_voltage_phase_angle_1,9,3,2_ + 11.834319526627219 node_voltage_phase_angle_1,10,3,2_ + 1 int_ex_flow_1_16,3,2_ = 0
c584: -11.834319526627219 node_voltage_phase_angle_1,9,4,2_ + 11.834319526627219 node_voltage_phase_angle_1,10,4,2_ + 1 int_ex_flow_1_16,4,2_ = 0
c585: -3.698498409645684 node_voltage_phase_angle_1,9,1,1_ + 3.698498409645684 node_voltage_phase_angle_1,14,1,1_ + 1 int_ex_flow_1_17,1,1_ = 0
c586: -3.698498409645684 node_voltage_phase_angle_1,9,2,1_ + 3.698498409645684 node_voltage_phase_angle_1,14,2,1_ + 1 int_ex_flow_1_17,2,1_ = 0
c587: -3.698498409645684 node_voltage_phase_angle_1,9,3,1_ + 3.698498409645684 node_voltage_phase_angle_1,14,3,1_ + 1 int_ex_flow_1_17,3,1_ = 0
c588: -3.698498409645684 node_voltage_phase_angle_1,9,4,1_ + 3.698498409645684 node_voltage_phase_angle_1,14,4,1_ + 1 int_ex_flow_1_17,4,1_ = 0
c589: -3.698498409645684 node_voltage_phase_angle_1,9,1,2_ + 3.698498409645684 node_voltage_phase_angle_1,14,1,2_ + 1 int_ex_flow_1_17,1,2_ = 0
c590: -3.698498409645684 node_voltage_phase_angle_1,9,2,2_ + 3.698498409645684 node_voltage_phase_angle_1,14,2,2_ + 1 int_ex_flow_1_17,2,2_ = 0
c591: -3.698498409645684 node_voltage_phase_angle_1,9,3,2_ + 3.698498409645684 node_voltage_phase_angle_1,14,3,2_ + 1 int_ex_flow_1_17,3,2_ = 0
c592: -3.698498409645684 node_voltage_phase_angle_1,9,4,2_ + 3.698498409645684 node_voltage_phase_angle_1,14,4,2_ + 1 int_ex_flow_1_17,4,2_ = 0
c593: -5.206435153850159 node_voltage_phase_angle_1,10,1,1_ + 5.206435153850159 node_voltage_phase_angle_1,11,1,1_ + 1 int_ex_flow_1_18,1,1_ = 0
c594: -5.206435153850159 node_voltage_phase_angle_1,10,2,1_ + 5.206435153850159 node_voltage_phase_angle_1,11,2,1_ + 1 int_ex_flow_1_18,2,1_ = 0
c595: -5.206435153850159 node_voltage_phase_angle_1,10,3,1_ + 5.206435153850159 node_voltage_phase_angle_1,11,3,1_ + 1 int_ex_flow_1_18,3,1_ = 0
c596: -5.206435153850159 node_voltage_phase_angle_1,10,4,1_ + 5.206435153850159 node_voltage_phase_angle_1,11,4,1_ + 1 int_ex_flow_1_18,4,1_ = 0
c597: -5.206435153850159 node_voltage_phase_angle_1,10,1,2_ + 5.206435153850159 node_voltage_phase_angle_1,11,1,2_ + 1 int_ex_flow_1_18,1,2_ = 0
c598: -5.206435153850159 node_voltage_phase_angle_1,10,2,2_ + 5.206435153850159 node_voltage_phase_angle_1,11,2,2_ + 1 int_ex_flow_1_18,2,2_ = 0
c599: -5.206435153850159 node_voltage_phase_angle_1,10,3,2_ + 5.206435153850159 node_voltage_phase_angle_1,11,3,2_ + 1 int_ex_flow_1_18,3,2_ = 0
c600: -5.206435153850159 node_voltage_phase_angle_1,10,4,2_ + 5.206435153850159 node_voltage_phase_angle_1,11,4,2_ + 1 int_ex_flow_1_18,4,2_ = 0
c601: -5.003001801080648 node_voltage_phase_angle_1,12,1,1_ + 5.003001801080648 node_voltage_phase_angle_1,13,1,1_ + 1 int_ex_flow_1_19,1,1_ = 0
c602: -5.003001801080648 node_voltage_phase_angle_1,12,2,1_ + 5.003001801080648 node_voltage_phase_angle_1,13,2,1_ + 1 int_ex_flow_1_19,2,1_ = 0
c603: -5.003001801080648 node_voltage_phase_angle_1,12,3,1_ + 5.003001801080648 node_voltage_phase_angle_1,13,3,1_ + 1 int_ex_flow_1_19,3,1_ = 0
c604: -5.003001801080648 node_voltage_phase_angle_1,12,4,1_ + 5.003001801080648 node_voltage_phase_angle_1,13,4,1_ + 1 int_ex_flow_1_19,4,1_ = 0
c605: -5.003001801080648 node_voltage_phase_angle_1,12,1,2_ + 5.003001801080648 node_voltage_phase_angle_1,13,1,2_ + 1 int_ex_flow_1_19,1,2_ = 0
c606: -5.003001801080648 node_voltage_phase_angle_1,12,2,2_ + 5.003001801080648 node_voltage_phase_angle_1,13,2,2_ + 1 int_ex_flow_1_19,2,2_ = 0
c607: -5.003001801080648 node_voltage_phase_angle_1,12,3,2_ + 5.003001801080648 node_voltage_phase_angle_1,13,3,2_ + 1 int_ex_flow_1_19,3,2_ = 0
c608: -5.003001801080648 node_voltage_phase_angle_1,12,4,2_ + 5.003001801080648 node_voltage_phase_angle_1,13,4,2_ + 1 int_ex_flow_1_19,4,2_ = 0
c609: -2.873398080570082 node_voltage_phase_angle_1,13,1,1_ + 2.873398080570082 node_voltage_phase_angle_1,14,1,1_ + 1 int_ex_flow_1_20,1,1_ = 0
c610: -2.873398080570082 node_voltage_phase_angle_1,13,2,1_ + 2.873398080570082 node_voltage_phase_angle_1,14,2,1_ + 1 int_ex_flow_1_20,2,1_ = 0
c611: -2.873398080570082 node_voltage_phase_angle_1,13,3,1_ + 2.873398080570082 node_voltage_phase_angle_1,14,3,1_ + 1 int_ex_flow_1_20,3,1_ = 0
c612: -2.873398080570082 node_voltage_phase_angle_1,13,4,1_ + 2.873398080570082 node_voltage_phase_angle_1,14,4,1_ + 1 int_ex_flow_1_20,4,1_ = 0
c613: -2.873398080570082 node_voltage_phase_angle_1,13,1,2_ + 2.873398080570082 node_voltage_phase_angle_1,14,1,2_ + 1 int_ex_flow_1_20,1,2_ = 0
c614: -2.873398080570082 node_voltage_phase_angle_1,13,2,2_ + 2.873398080570082 node_voltage_phase_angle_1,14,2,2_ + 1 int_ex_flow_1_20,2,2_ = 0
c615: -2.873398080570082 node_voltage_phase_angle_1,13,3,2_ + 2.873398080570082 node_voltage_phase_angle_1,14,3,2_ + 1 int_ex_flow_1_20,3,2_ = 0
c616: -2.873398080570082 node_voltage_phase_angle_1,13,4,2_ + 2.873398080570082 node_voltage_phase_angle_1,14,4,2_ + 1 int_ex_flow_1_20,4,2_ = 0
c617: -17.391304347826086 node_voltage_phase_angle_2,1,1,1_ + 17.391304347826086 node_voltage_phase_angle_2,2,1,1_ + 1 int_ex_flow_2_1,1,1_ = 0
c618: -17.391304347826086 node_voltage_phase_angle_2,1,2,1_ + 17.391304347826086 node_voltage_phase_angle_2,2,2,1_ + 1 int_ex_flow_2_1,2,1_ = 0
c619: -17.391304347826086 node_voltage_phase_angle_2,1,3,1_ + 17.391304347826086 node_voltage_phase_angle_2,2,3,1_ + 1 int_ex_flow_2_1,3,1_ = 0
c620: -17.391304347826086 node_voltage_phase_angle_2,1,4,1_ + 17.391304347826086 node_voltage_phase_angle_2,2,4,1_ + 1 int_ex_flow_2_1,4,1_ = 0
c621: -17.391304347826086 node_voltage_phase_angle_2,1,1,2_ + 17.391304347826086 node_voltage_phase_angle_2,2,1,2_ + 1 int_ex_flow_2_1,1,2_ = 0
c622: -17.391304347826086 node_voltage_phase_angle_2,1,2,2_ + 17.391304347826086 node_voltage_phase_angle_2,2,2,2_ + 1 int_ex_flow_2_1,2,2_ = 0
c623: -17.391304347826086 node_voltage_phase_angle_2,1,3,2_ + 17.391304347826086 node_voltage_phase_angle_2,2,3,2_ + 1 int_ex_flow_2_1,3,2_ = 0
c624: -17.391304347826086 node_voltage_phase_angle_2,1,4,2_ + 17.391304347826086 node_voltage_phase_angle_2,2,4,2_ + 1 int_ex_flow_2_1,4,2_ = 0
c625: -6.053268765133171 node_voltage_phase_angle_2,1,1,1_ + 6.053268765133171 node_voltage_phase_angle_2,3,1,1_ + 1 int_ex_flow_2_2,1,1_ = 0
c626: -6.053268765133171 node_voltage_phase_angle_2,1,2,1_ + 6.053268765133171 node_voltage_phase_angle_2,3,2,1_ + 1 int_ex_flow_2_2,2,1_ = 0
c627: -6.053268765133171 node_voltage_phase_angle_2,1,3,1_ + 6.053268765133171 node_voltage_phase_angle_2,3,3,1_ + 1 int_ex_flow_2_2,3,1_ = 0
c628: -6.053268765133171 node_voltage_phase_angle_2,1,4,1_ + 6.053268765133171 node_voltage_phase_angle_2,3,4,1_ + 1 int_ex_flow_2_2,4,1_ = 0
c629: -6.053268765133171 node_voltage_phase_angle_2,1,1,2_ + 6.053268765133171 node_voltage_phase_angle_2,3,1,2_ + 1 int_ex_flow_2_2,1,2_ = 0
c630: -6.053268765133171 node_voltage_phase_angle_2,1,2,2_ + 6.053268765133171 node_voltage_phase_angle_2,3,2,2_ + 1 int_ex_flow_2_2,2,2_ = 0
c631: -6.053268765133171 node_voltage_phase_angle_2,1,3,2_ + 6.053268765133171 node_voltage_phase_angle_2,3,3,2_ + 1 int_ex_flow_2_2,3,2_ = 0
c632: -6.053268765133171 node_voltage_phase_angle_2,1,4,2_ + 6.053268765133171 node_voltage_phase_angle_2,3,4,2_ + 1 int_ex_flow_2_2,4,2_ = 0
c633: -5.757052389176741 node_voltage_phase_angle_2,2,1,1_ + 5.757052389176741 node_voltage_phase_angle_2,4,1,1_ + 1 int_ex_flow_2_3,1,1_ = 0
c634: -5.757052389176741 node_voltage_phase_angle_2,2,2,1_ + 5.757052389176741 node_voltage_phase_angle_2,4,2,1_ + 1 int_ex_flow_2_3,2,1_ = 0
c635: -5.757052389176741 node_voltage_phase_angle_2,2,3,1_ + 5.757052389176741 node_voltage_phase_angle_2,4,3,1_ + 1 int_ex_flow_2_3,3,1_ = 0
c636: -5.757052389176741 node_voltage_phase_angle_2,2,4,1_ + 5.757052389176741 node_voltage_phase_angle_2,4,4,1_ + 1 int_ex_flow_2_3,4,1_ = 0
c637: -5.757052389176741 node_voltage_phase_angle_2,2,1,2_ + 5.757052389176741 node_voltage_phase_angle_2,4,1,2_ + 1 int_ex_flow_2_3,1,2_ = 0
c638: -5.757052389176741 node_voltage_phase_angle_2,2,2,2_ + 5.757052389176741 node_voltage_phase_angle_2,4,2,2_ + 1 int_ex_flow_2_3,2,2_ = 0
c639: -5.757052389176741 node_voltage_phase_angle_2,2,3,2_ + 5.757052389176741 node_voltage_phase_angle_2,4,3,2_ + 1 int_ex_flow_2_3,3,2_ = 0
c640: -5.757052389176741 node_voltage_phase_angle_2,2,4,2_ + 5.757052389176741 node_voltage_phase_angle_2,4,4,2_ + 1 int_ex_flow_2_3,4,2_ = 0
c641: -5.042864346949067 node_voltage_phase_angle_2,2,1,1_ + 5.042864346949067 node_voltage_phase_angle_2,5,1,1_ + 1 int_ex_flow_2_4,1,1_ = 0
c642: -5.042864346949067 node_voltage_phase_angle_2,2,2,1_ + 5.042864346949067 node_voltage_phase_angle_2,5,2,1_ + 1 int_ex_flow_2_4,2,1_ = 0
c643: -5.042864346949067 node_voltage_phase_angle_2,2,3,1_ + 5.042864346949067 node_voltage_phase_angle_2,5,3,1_ + 1 int_ex_flow_2_4,3,1_ = 0
c644: -5.042864346949067 node_voltage_phase_angle_2,2,4,1_ + 5.042864346949067 node_voltage_phase_angle_2,5,4,1_ + 1 int_ex_flow_2_4,4,1_ = 0
c645: -5.042864346949067 node_voltage_phase_angle_2,2,1,2_ + 5.042864346949067 node_voltage_phase_angle_2,5,1,2_ + 1 int_ex_flow_2_4,1,2_ = 0
c646: -5.042864346949067 node_voltage_phase_angle_2,2,2,2_ + 5.042864346949067 node_voltage_phase_angle_2,5,2,2_ + 1 int_ex_flow_2_4,2,2_ = 0
c647: -5.042864346949067 node_voltage_phase_angle_2,2,3,2_ + 5.042864346949067 node_voltage_phase_angle_2,5,3,2_ + 1 int_ex_flow_2_4,3,2_ = 0
c648: -5.042864346949067 node_voltage_phase_angle_2,2,4,2_ + 5.042864346949067 node_voltage_phase_angle_2,5,4,2_ + 1 int_ex_flow_2_4,4,2_ = 0
c649: -5.672149744753261 node_voltage_phase_angle_2,2,1,1_ + 5.672149744753261 node_voltage_phase_angle_2,6,1,1_ + 1 int_ex_flow_2_5,1,1_ = 0
c650: -5.672149744753261 node_voltage_phase_angle_2,2,2,1_ + 5.672149744753261 node_voltage_phase_angle_2,6,2,1_ + 1 int_ex_flow_2_5,2,1_ = 0
c651: -5.672149744753261 node_voltage_phase_angle_2,2,3,1_ + 5.672149744753261 node_voltage_phase_angle_2,6,3,1_ + 1 int_ex_flow_2_5,3,1_ = 0
c652: -5.672149744753261 node_voltage_phase_angle_2,2,4,1_ + 5.672149744753261 node_voltage_phase_angle_2,6,4,1_ + 1 int_ex_flow_2_5,4,1_ = 0
c653: -5.672149744753261 node_voltage_phase_angle_2,2,1,2_ + 5.672149744753261 node_voltage_phase_angle_2,6,1,2_ + 1 int_ex_flow_2_5,1,2_ = 0
c654: -5.672149744753261 node_voltage_phase_angle_2,2,2,2_ + 5.672149744753261 node_voltage_phase_angle_2,6,2,2_ + 1 int_ex_flow_2_5,2,2_ = 0
c655: -5.672149744753261 node_voltage_phase_angle_2,2,3,2_ + 5.672149744753261 node_voltage_phase_angle_2,6,3,2_ + 1 int_ex_flow_2_5,3,2_ = 0
c656: -5.672149744753261 node_voltage_phase_angle_2,2,4,2_ + 5.672149744753261 node_voltage_phase_angle_2,6,4,2_ + 1 int_ex_flow_2_5,4,2_ = 0
c657: -26.38522427440633 node_voltage_phase_angle_2,3,1,1_ + 26.38522427440633 node_voltage_phase_angle_2,4,1,1_ + 1 int_ex_flow_2_6,1,1_ = 0
c658: -26.38522427440633 node_voltage_phase_angle_2,3,2,1_ + 26.38522427440633 node_voltage_phase_angle_2,4,2,1_ + 1 int_ex_flow_2_6,2,1_ = 0
c659: -26.38522427440633 node_voltage_phase_angle_2,3,3,1_ + 26.38522427440633 node_voltage_phase_angle_2,4,3,1_ + 1 int_ex_flow_2_6,3,1_ = 0
c660: -26.38522427440633 node_voltage_phase_angle_2,3,4,1_ + 26.38522427440633 node_voltage_phase_angle_2,4,4,1_ + 1 int_ex_flow_2_6,4,1_ = 0
c661: -26.38522427440633 node_voltage_phase_angle_2,3,1,2_ + 26.38522427440633 node_voltage_phase_angle_2,4,1,2_ + 1 int_ex_flow_2_6,1,2_ = 0
c662: -26.38522427440633 node_voltage_phase_angle_2,3,2,2_ + 26.38522427440633 node_voltage_phase_angle_2,4,2,2_ + 1 int_ex_flow_2_6,2,2_ = 0
c663: -26.38522427440633 node_voltage_phase_angle_2,3,3,2_ + 26.38522427440633 node_voltage_phase_angle_2,4,3,2_ + 1 int_ex_flow_2_6,3,2_ = 0
c664: -26.38522427440633 node_voltage_phase_angle_2,3,4,2_ + 26.38522427440633 node_voltage_phase_angle_2,4,4,2_ + 1 int_ex_flow_2_6,4,2_ = 0
c665: -24.154589371980677 node_voltage_phase_angle_2,4,1,1_ + 24.154589371980677 node_voltage_phase_angle_2,6,1,1_ + 1 int_ex_flow_2_7,1,1_ = 0
c666: -24.154589371980677 node_voltage_phase_angle_2,4,2,1_ + 24.154589371980677 node_voltage_phase_angle_2,6,2,1_ + 1 int_ex_flow_2_7,2,1_ = 0
c667: -24.154589371980677 node_voltage_phase_angle_2,4,3,1_ + 24.154589371980677 node_voltage_phase_angle_2,6,3,1_ + 1 int_ex_flow_2_7,3,1_ = 0
c668: -24.154589371980677 node_voltage_phase_angle_2,4,4,1_ + 24.154589371980677 node_voltage_phase_angle_2,6,4,1_ + 1 int_ex_flow_2_7,4,1_ = 0
c669: -24.154589371980677 node_voltage_phase_angle_2,4,1,2_ + 24.154589371980677 node_voltage_phase_angle_2,6,1,2_ + 1 int_ex_flow_2_7,1,2_ = 0
c670: -24.154589371980677 node_voltage_phase_angle_2,4,2,2_ + 24.154589371980677 node_voltage_phase_angle_2,6,2,2_ + 1 int_ex_flow_2_7,2,2_ = 0
c671: -24.154589371980677 node_voltage_phase_angle_2,4,3,2_ + 24.154589371980677 node_voltage_phase_angle_2,6,3,2_ + 1 int_ex_flow_2_7,3,2_ = 0
c672: -24.154589371980677 node_voltage_phase_angle_2,4,4,2_ + 24.154589371980677 node_voltage_phase_angle_2,6,4,2_ + 1 int_ex_flow_2_7,4,2_ = 0
c673: -3.90625 node_voltage_phase_angle_2,4,1,1_ + 3.90625 node_voltage_phase_angle_2,12,1,1_ + 1 int_ex_flow_2_8,1,1_ = 0
c674: -3.90625 node_voltage_phase_angle_2,4,2,1_ + 3.90625 node_voltage_phase_angle_2,12,2,1_ + 1 int_ex_flow_2_8,2,1_ = 0
c675: -3.90625 node_voltage_phase_angle_2,4,3,1_ + 3.90625 node_voltage_phase_angle_2,12,3,1_ + 1 int_ex_flow_2_8,3,1_ = 0
c676: -3.90625 node_voltage_phase_angle_2,4,4,1_ + 3.90625 node_voltage_phase_angle_2,12,4,1_ + 1 int_ex_flow_2_8,4,1_ = 0
c677: -3.90625 node_voltage_phase_angle_2,4,1,2_ + 3.90625 node_voltage_phase_angle_2,12,1,2_ + 1 int_ex_flow_2_8,1,2_ = 0
c678: -3.90625 node_voltage_phase_angle_2,4,2,2_ + 3.90625 node_voltage_phase_angle_2,12,2,2_ + 1 int_ex_flow_2_8,2,2_ = 0
c679: -3.90625 node_voltage_phase_angle_2,4,3,2_ + 3.90625 node_voltage_phase_angle_2,12,3,2_ + 1 int_ex_flow_2_8,3,2_ = 0
c680: -3.90625 node_voltage_phase_angle_2,4,4,2_ + 3.90625 node_voltage_phase_angle_2,12,4,2_ + 1 int_ex_flow_2_8,4,2_ = 0
c681: -8.620689655172413 node_voltage_phase_angle_2,5,1,1_ + 8.620689655172413 node_voltage_phase_angle_2,7,1,1_ + 1 int_ex_flow_2_9,1,1_ = 0
c682: -8.620689655172413 node_voltage_phase_angle_2,5,2,1_ + 8.620689655172413 node_voltage_phase_angle_2,7,2,1_ + 1 int_ex_flow_2_9,2,1_ = 0
c683: -8.620689655172413 node_voltage_phase_angle_2,5,3,1_ + 8.620689655172413 node_voltage_phase_angle_2,7,3,1_ + 1 int_ex_flow_2_9,3,1_ = 0
c684: -8.620689655172413 node_voltage_phase_angle_2,5,4,1_ + 8.620689655172413 node_voltage_phase_angle_2,7,4,1_ + 1 int_ex_flow_2_9,4,1_ = 0
c685: -8.620689655172413 node_voltage_phase_angle_2,5,1,2_ + 8.620689655172413 node_voltage_phase_angle_2,7,1,2_ + 1 int_ex_flow_2_9,1,2_ = 0
c686: -8.620689655172413 node_voltage_phase_angle_2,5,2,2_ + 8.620689655172413 node_voltage_phase_angle_2,7,2,2_ + 1 int_ex_flow_2_9,2,2_ = 0
c687: -8.620689655172413 node_voltage_phase_angle_2,5,3,2_ + 8.620689655172413 node_voltage_phase_angle_2,7,3,2_ + 1 int_ex_flow_2_9,3,2_ = 0
c688: -8.620689655172413 node_voltage_phase_angle_2,5,4,2_ + 8.620689655172413 node_voltage_phase_angle_2,7,4,2_ + 1 int_ex_flow_2_9,4,2_ = 0
c689: -12.195121951219512 node_voltage_phase_angle_2,6,1,1_ + 12.195121951219512 node_voltage_phase_angle_2,7,1,1_ + 1 int_ex_flow_2_10,1,1_ = 0
c690: -12.195121951219512 node_voltage_phase_angle_2,6,2,1_ + 12.195121951219512 node_voltage_phase_angle_2,7,2,1_ + 1 int_ex_flow_2_10,2,1_ = 0
c691: -12.195121951219512 node_voltage_phase_angle_2,6,3,1_ + 12.195121951219512 node_voltage_phase_angle_2,7,3,1_ + 1 int_ex_flow_2_10,3,1_ = 0
c692: -12.195121951219512 node_voltage_phase_angle_2,6,4,1_ + 12.195121951219512 node_voltage_phase_angle_2,7,4,1_ + 1 int_ex_flow_2_10,4,1_ = 0
c693: -12.195121951219512 node_voltage_phase_angle_2,6,1,2_ + 12.195121951219512 node_voltage_phase_angle_2,7,1,2_ + 1 int_ex_flow_2_10,1,2_ = 0
c694: -12.195121951219512 node_voltage_phase_angle_2,6,2,2_ + 12.195121951219512 node_voltage_phase_angle_2,7,2,2_ + 1 int_ex_flow_2_10,2,2_ = 0
c695: -12.195121951219512 node_voltage_phase_angle_2,6,3,2_ + 12.195121951219512 node_voltage_phase_angle_2,7,3,2_ + 1 int_ex_flow_2_10,3,2_ = 0
c696: -12.195121951219512 node_voltage_phase_angle_2,6,4,2_ + 12.195121951219512 node_voltage_phase_angle_2,7,4,2_ + 1 int_ex_flow_2_10,4,2_ = 0
c697: -23.809523809523807 node_voltage_phase_angle_2,6,1,1_ + 23.809523809523807 node_voltage_phase_angle_2,8,1,1_ + 1 int_ex_flow_2_11,1,1_ = 0
c698: -23.809523809523807 node_voltage_phase_angle_2,6,2,1_ + 23.809523809523807 node_voltage_phase_angle_2,8,2,1_ + 1 int_ex_flow_2_11,2,1_ = 0
c699: -23.809523809523807 node_voltage_phase_angle_2,6,3,1_ + 23.809523809523807 node_voltage_phase_angle_2,8,3,1_ + 1 int_ex_flow_2_11,3,1_ = 0
c700: -23.809523809523807 node_voltage_phase_angle_2,6,4,1_ + 23.809523809523807 node_voltage_phase_angle_2,8,4,1_ + 1 int_ex_flow_2_11,4,1_ = 0
c701: -23.809523809523807 node_voltage_phase_angle_2,6,1,2_ + 23.809523809523807 node_voltage_phase_angle_2,8,1,2_ + 1 int_ex_flow_2_11,1,2_ = 0
c702: -23.809523809523807 node_voltage_phase_angle_2,6,2,2_ + 23.809523809523807 node_voltage_phase_angle_2,8,2,2_ + 1 int_ex_flow_2_11,2,2_ = 0
c703: -23.809523809523807 node_voltage_phase_angle_2,6,3,2_ + 23.809523809523807 node_voltage_phase_angle_2,8,3,2_ + 1 int_ex_flow_2_11,3,2_ = 0
c704: -23.809523809523807 node_voltage_phase_angle_2,6,4,2_ + 23.809523809523807 node_voltage_phase_angle_2,8,4,2_ + 1 int_ex_flow_2_11,4,2_ = 0
c705: -4.8076923076923075 node_voltage_phase_angle_2,6,1,1_ + 4.8076923076923075 node_voltage_phase_angle_2,9,1,1_ + 1 int_ex_flow_2_12,1,1_ = 0
c706: -4.8076923076923075 node_voltage_phase_angle_2,6,2,1_ + 4.8076923076923075 node_voltage_phase_angle_2,9,2,1_ + 1 int_ex_flow_2_12,2,1_ = 0
c707: -4.8076923076923075 node_voltage_phase_angle_2,6,3,1_ + 4.8076923076923075 node_voltage_phase_angle_2,9,3,1_ + 1 int_ex_flow_2_12,3,1_ = 0
c708: -4.8076923076923075 node_voltage_phase_angle_2,6,4,1_ + 4.8076923076923075 node_voltage_phase_angle_2,9,4,1_ + 1 int_ex_flow_2_12,4,1_ = 0
c709: -4.8076923076923075 node_voltage_phase_angle_2,6,1,2_ + 4.8076923076923075 node_voltage_phase_angle_2,9,1,2_ + 1 int_ex_flow_2_12,1,2_ = 0
c710: -4.8076923076923075 node_voltage_phase_angle_2,6,2,2_ + 4.8076923076923075 node_voltage_phase_angle_2,9,2,2_ + 1 int_ex_flow_2_12,2,2_ = 0
c711: -4.8076923076923075 node_voltage_phase_angle_2,6,3,2_ + 4.8076923076923075 node_voltage_phase_angle_2,9,3,2_ + 1 int_ex_flow_2_12,3,2_ = 0
c712: -4.8076923076923075 node_voltage_phase_angle_2,6,4,2_ + 4.8076923076923075 node_voltage_phase_angle_2,9,4,2_ + 1 int_ex_flow_2_12,4,2_ = 0
c713: -1.7985611510791366 node_voltage_phase_angle_2,6,1,1_ + 1.7985611510791366 node_voltage_phase_angle_2,10,1,1_ + 1 int_ex_flow_2_13,1,1_ = 0
c714: -1.7985611510791366 node_voltage_phase_angle_2,6,2,1_ + 1.7985611510791366 node_voltage_phase_angle_2,10,2,1_ + 1 int_ex_flow_2_13,2,1_ = 0
c715: -1.7985611510791366 node_voltage_phase_angle_2,6,3,1_ + 1.7985611510791366 node_voltage_phase_angle_2,10,3,1_ + 1 int_ex_flow_2_13,3,1_ = 0
c716: -1.7985611510791366 node_voltage_phase_angle_2,6,4,1_ + 1.7985611510791366 node_voltage_phase_angle_2,10,4,1_ + 1 int_ex_flow_2_13,4,1_ = 0
c717: -1.7985611510791366 node_voltage_phase_angle_2,6,1,2_ + 1.7985611510791366 node_voltage_phase_angle_2,10,1,2_ + 1 int_ex_flow_2_13,1,2_ = 0
c718: -1.7985611510791366 node_voltage_phase_angle_2,6,2,2_ + 1.7985611510791366 node_voltage_phase_angle_2,10,2,2_ + 1 int_ex_flow_2_13,2,2_ = 0
c719: -1.7985611510791366 node_voltage_phase_angle_2,6,3,2_ + 1.7985611510791366 node_voltage_phase_angle_2,10,3,2_ + 1 int_ex_flow_2_13,3,2_ = 0
c720: -1.7985611510791366 node_voltage_phase_angle_2,6,4,2_ + 1.7985611510791366 node_voltage_phase_angle_2,10,4,2_ + 1 int_ex_flow_2_13,4,2_ = 0
c721: -16.69449081803005 node_voltage_phase_angle_2,6,1,1_ + 16.69449081803005 node_voltage_phase_angle_2,28,1,1_ + 1 int_ex_flow_2_14,1,1_ = 0
c722: -16.69449081803005 node_voltage_phase_angle_2,6,2,1_ + 16.69449081803005 node_voltage_phase_angle_2,28,2,1_ + 1 int_ex_flow_2_14,2,1_ = 0
c723: -16.69449081803005 node_voltage_phase_angle_2,6,3,1_ + 16.69449081803005 node_voltage_phase_angle_2,28,3,1_ + 1 int_ex_flow_2_14,3,1_ = 0
c724: -16.69449081803005 node_voltage_phase_angle_2,6,4,1_ + 16.69449081803005 node_voltage_phase_angle_2,28,4,1_ + 1 int_ex_flow_2_14,4,1_ = 0
c725: -16.69449081803005 node_voltage_phase_angle_2,6,1,2_ + 16.69449081803005 node_voltage_phase_angle_2,28,1,2_ + 1 int_ex_flow_2_14,1,2_ = 0
c726: -16.69449081803005 node_voltage_phase_angle_2,6,2,2_ + 16.69449081803005 node_voltage_phase_angle_2,28,2,2_ + 1 int_ex_flow_2_14,2,2_ = 0
c727: -16.69449081803005 node_voltage_phase_angle_2,6,3,2_ + 16.69449081803005 node_voltage_phase_angle_2,28,3,2_ + 1 int_ex_flow_2_14,3,2_ = 0
c728: -16.69449081803005 node_voltage_phase_angle_2,6,4,2_ + 16.69449081803005 node_voltage_phase_angle_2,28,4,2_ + 1 int_ex_flow_2_14,4,2_ = 0
c729: -5 node_voltage_phase_angle_2,8,1,1_ + 5 node_voltage_phase_angle_2,28,1,1_ + 1 int_ex_flow_2_15,1,1_ = 0
c730: -5 node_voltage_phase_angle_2,8,2,1_ + 5 node_voltage_phase_angle_2,28,2,1_ + 1 int_ex_flow_2_15,2,1_ = 0
c731: -5 node_voltage_phase_angle_2,8,3,1_ + 5 node_voltage_phase_angle_2,28,3,1_ + 1 int_ex_flow_2_15,3,1_ = 0
c732: -5 node_voltage_phase_angle_2,8,4,1_ + 5 node_voltage_phase_angle_2,28,4,1_ + 1 int_ex_flow_2_15,4,1_ = 0
c733: -5 node_voltage_phase_angle_2,8,1,2_ + 5 node_voltage_phase_angle_2,28,1,2_ + 1 int_ex_flow_2_15,1,2_ = 0
c734: -5 node_voltage_phase_angle_2,8,2,2_ + 5 node_voltage_phase_angle_2,28,2,2_ + 1 int_ex_flow_2_15,2,2_ = 0
c735: -5 node_voltage_phase_angle_2,8,3,2_ + 5 node_voltage_phase_angle_2,28,3,2_ + 1 int_ex_flow_2_15,3,2_ = 0
c736: -5 node_voltage_phase_angle_2,8,4,2_ + 5 node_voltage_phase_angle_2,28,4,2_ + 1 int_ex_flow_2_15,4,2_ = 0
c737: -9.090909090909092 node_voltage_phase_angle_2,9,1,1_ + 9.090909090909092 node_voltage_phase_angle_2,10,1,1_ + 1 int_ex_flow_2_16,1,1_ = 0
c738: -9.090909090909092 node_voltage_phase_angle_2,9,2,1_ + 9.090909090909092 node_voltage_phase_angle_2,10,2,1_ + 1 int_ex_flow_2_16,2,1_ = 0
c739: -9.090909090909092 node_voltage_phase_angle_2,9,3,1_ + 9.090909090909092 node_voltage_phase_angle_2,10,3,1_ + 1 int_ex_flow_2_16,3,1_ = 0
c740: -9.090909090909092 node_voltage_phase_angle_2,9,4,1_ + 9.090909090909092 node_voltage_phase_angle_2,10,4,1_ + 1 int_ex_flow_2_16,4,1_ = 0
c741: -9.090909090909092 node_voltage_phase_angle_2,9,1,2_ + 9.090909090909092 node_voltage_phase_angle_2,10,1,2_ + 1 int_ex_flow_2_16,1,2_ = 0
c742: -9.090909090909092 node_voltage_phase_angle_2,9,2,2_ + 9.090909090909092 node_voltage_phase_angle_2,10,2,2_ + 1 int_ex_flow_2_16,2,2_ = 0
c743: -9.090909090909092 node_voltage_phase_angle_2,9,3,2_ + 9.090909090909092 node_voltage_phase_angle_2,10,3,2_ + 1 int_ex_flow_2_16,3,2_ = 0
c744: -9.090909090909092 node_voltage_phase_angle_2,9,4,2_ + 9.090909090909092 node_voltage_phase_angle_2,10,4,2_ + 1 int_ex_flow_2_16,4,2_ = 0
c745: -4.8076923076923075 node_voltage_phase_angle_2,9,1,1_ + 4.8076923076923075 node_voltage_phase_angle_2,11,1,1_ + 1 int_ex_flow_2_17,1,1_ = 0
c746: -4.8076923076923075 node_voltage_phase_angle_2,9,2,1_ + 4.8076923076923075 node_voltage_phase_angle_2,11,2,1_ + 1 int_ex_flow_2_17,2,1_ = 0
c747: -4.8076923076923075 node_voltage_phase_angle_2,9,3,1_ + 4.8076923076923075 node_voltage_phase_angle_2,11,3,1_ + 1 int_ex_flow_2_17,3,1_ = 0
c748: -4.8076923076923075 node_voltage_phase_angle_2,9,4,1_ + 4.8076923076923075 node_voltage_phase_angle_2,11,4,1_ + 1 int_ex_flow_2_17,4,1_ = 0
c749: -4.8076923076923075 node_voltage_phase_angle_2,9,1,2_ + 4.8076923076923075 node_voltage_phase_angle_2,11,1,2_ + 1 int_ex_flow_2_17,1,2_ = 0
c750: -4.8076923076923075 node_voltage_phase_angle_2,9,2,2_ + 4.8076923076923075 node_voltage_phase_angle_2,11,2,2_ + 1 int_ex_flow_2_17,2,2_ = 0
c751: -4.8076923076923075 node_voltage_phase_angle_2,9,3,2_ + 4.8076923076923075 node_voltage_phase_angle_2,11,3,2_ + 1 int_ex_flow_2_17,3,2_ = 0
c752: -4.8076923076923075 node_voltage_phase_angle_2,9,4,2_ + 4.8076923076923075 node_voltage_phase_angle_2,11,4,2_ + 1 int_ex_flow_2_17,4,2_ = 0
c753: -11.834319526627219 node_voltage_phase_angle_2,10,1,1_ + 11.834319526627219 node_voltage_phase_angle_2,17,1,1_ + 1 int_ex_flow_2_18,1,1_ = 0
c754: -11.834319526627219 node_voltage_phase_angle_2,10,2,1_ + 11.834319526627219 node_voltage_phase_angle_2,17,2,1_ + 1 int_ex_flow_2_18,2,1_ = 0
c755: -11.834319526627219 node_voltage_phase_angle_2,10,3,1_ + 11.834319526627219 node_voltage_phase_angle_2,17,3,1_ + 1 int_ex_flow_2_18,3,1_ = 0
c756: -11.834319526627219 node_voltage_phase_angle_2,10,4,1_ + 11.834319526627219 node_voltage_phase_angle_2,17,4,1_ + 1 int_ex_flow_2_18,4,1_ = 0
c757: -11.834319526627219 node_voltage_phase_angle_2,10,1,2_ + 11.834319526627219 node_voltage_phase_angle_2,17,1,2_ + 1 int_ex_flow_2_18,1,2_ = 0
c758: -11.834319526627219 node_voltage_phase_angle_2,10,2,2_ + 11.834319526627219 node_voltage_phase_angle_2,17,2,2_ + 1 int_ex_flow_2_18,2,2_ = 0
c759: -11.834319526627219 node_voltage_phase_angle_2,10,3,2_ + 11.834319526627219 node_voltage_phase_angle_2,17,3,2_ + 1 int_ex_flow_2_18,3,2_ = 0
c760: -11.834319526627219 node_voltage_phase_angle_2,10,4,2_ + 11.834319526627219 node_voltage_phase_angle_2,17,4,2_ + 1 int_ex_flow_2_18,4,2_ = 0
c761: -4.784688995215311 node_voltage_phase_angle_2,10,1,1_ + 4.784688995215311 node_voltage_phase_angle_2,20,1,1_ + 1 int_ex_flow_2_19,1,1_ = 0
c762: -4.784688995215311 node_voltage_phase_angle_2,10,2,1_ + 4.784688995215311 node_voltage_phase_angle_2,20,2,1_ + 1 int_ex_flow_2_19,2,1_ = 0
c763: -4.784688995215311 node_voltage_phase_angle_2,10,3,1_ + 4.784688995215311 node_voltage_phase_angle_2,20,3,1_ + 1 int_ex_flow_2_19,3,1_ = 0
c764: -4.784688995215311 node_voltage_phase_angle_2,10,4,1_ + 4.784688995215311 node_voltage_phase_angle_2,20,4,1_ + 1 int_ex_flow_2_19,4,1_ = 0
c765: -4.784688995215311 node_voltage_phase_angle_2,10,1,2_ + 4.784688995215311 node_voltage_phase_angle_2,20,1,2_ + 1 int_ex_flow_2_19,1,2_ = 0
c766: -4.784688995215311 node_voltage_phase_angle_2,10,2,2_ + 4.784688995215311 node_voltage_phase_angle_2,20,2,2_ + 1 int_ex_flow_2_19,2,2_ = 0
c767: -4.784688995215311 node_voltage_phase_angle_2,10,3,2_ + 4.784688995215311 node_voltage_phase_angle_2,20,3,2_ + 1 int_ex_flow_2_19,3,2_ = 0
c768: -4.784688995215311 node_voltage_phase_angle_2,10,4,2_ + 4.784688995215311 node_voltage_phase_angle_2,20,4,2_ + 1 int_ex_flow_2_19,4,2_ = 0
c769: -13.35113484646195 node_voltage_phase_angle_2,10,1,1_ + 13.35113484646195 node_voltage_phase_angle_2,21,1,1_ + 1 int_ex_flow_2_20,1,1_ = 0
c770: -13.35113484646195 node_voltage_phase_angle_2,10,2,1_ + 13.35113484646195 node_voltage_phase_angle_2,21,2,1_ + 1 int_ex_flow_2_20,2,1_ = 0
c771: -13.35113484646195 node_voltage_phase_angle_2,10,3,1_ + 13.35113484646195 node_voltage_phase_angle_2,21,3,1_ + 1 int_ex_flow_2_20,3,1_ = 0
c772: -13.35113484646195 node_voltage_phase_angle_2,10,4,1_ + 13.35113484646195 node_voltage_phase_angle_2,21,4,1_ + 1 int_ex_flow_2_20,4,1_ = 0
c773: -13.35113484646195 node_voltage_phase_angle_2,10,1,2_ + 13.35113484646195 node_voltage_phase_angle_2,21,1,2_ + 1 int_ex_flow_2_20,1,2_ = 0
c774: -13.35113484646195 node_voltage_phase_angle_2,10,2,2_ + 13.35113484646195 node_voltage_phase_angle_2,21,2,2_ + 1 int_ex_flow_2_20,2,2_ = 0
c775: -13.35113484646195 node_voltage_phase_angle_2,10,3,2_ + 13.35113484646195 node_voltage_phase_angle_2,21,3,2_ + 1 int_ex_flow_2_20,3,2_ = 0
c776: -13.35113484646195 node_voltage_phase_angle_2,10,4,2_ + 13.35113484646195 node_voltage_phase_angle_2,21,4,2_ + 1 int_ex_flow_2_20,4,2_ = 0
c777: -6.6711140760507 node_voltage_phase_angle_2,10,1,1_ + 6.6711140760507 node_voltage_phase_angle_2,22,1,1_ + 1 int_ex_flow_2_21,1,1_ = 0
c778: -6.6711140760507 node_voltage_phase_angle_2,10,2,1_ + 6.6711140760507 node_voltage_phase_angle_2,22,2,1_ + 1 int_ex_flow_2_21,2,1_ = 0
c779: -6.6711140760507 node_voltage_phase_angle_2,10,3,1_ + 6.6711140760507 node_voltage_phase_angle_2,22,3,1_ + 1 int_ex_flow_2_21,3,1_ = 0
c780: -6.6711140760507 node_voltage_phase_angle_2,10,4,1_ + 6.6711140760507 node_voltage_phase_angle_2,22,4,1_ + 1 int_ex_flow_2_21,4,1_ = 0
c781: -6.6711140760507 node_voltage_phase_angle_2,10,1,2_ + 6.6711140760507 node_voltage_phase_angle_2,22,1,2_ + 1 int_ex_flow_2_21,1,2_ = 0
c782: -6.6711140760507 node_voltage_phase_angle_2,10,2,2_ + 6.6711140760507 node_voltage_phase_angle_2,22,2,2_ + 1 int_ex_flow_2_21,2,2_ = 0
c783: -6.6711140760507 node_voltage_phase_angle_2,10,3,2_ + 6.6711140760507 node_voltage_phase_angle_2,22,3,2_ + 1 int_ex_flow_2_21,3,2_ = 0
c784: -6.6711140760507 node_voltage_phase_angle_2,10,4,2_ + 6.6711140760507 node_voltage_phase_angle_2,22,4,2_ + 1 int_ex_flow_2_21,4,2_ = 0
c785: -7.142857142857142 node_voltage_phase_angle_2,12,1,1_ + 7.142857142857142 node_voltage_phase_angle_2,13,1,1_ + 1 int_ex_flow_2_22,1,1_ = 0
c786: -7.142857142857142 node_voltage_phase_angle_2,12,2,1_ + 7.142857142857142 node_voltage_phase_angle_2,13,2,1_ + 1 int_ex_flow_2_22,2,1_ = 0
c787: -7.142857142857142 node_voltage_phase_angle_2,12,3,1_ + 7.142857142857142 node_voltage_phase_angle_2,13,3,1_ + 1 int_ex_flow_2_22,3,1_ = 0
c788: -7.142857142857142 node_voltage_phase_angle_2,12,4,1_ + 7.142857142857142 node_voltage_phase_angle_2,13,4,1_ + 1 int_ex_flow_2_22,4,1_ = 0
c789: -7.142857142857142 node_voltage_phase_angle_2,12,1,2_ + 7.142857142857142 node_voltage_phase_angle_2,13,1,2_ + 1 int_ex_flow_2_22,1,2_ = 0
c790: -7.142857142857142 node_voltage_phase_angle_2,12,2,2_ + 7.142857142857142 node_voltage_phase_angle_2,13,2,2_ + 1 int_ex_flow_2_22,2,2_ = 0
c791: -7.142857142857142 node_voltage_phase_angle_2,12,3,2_ + 7.142857142857142 node_voltage_phase_angle_2,13,3,2_ + 1 int_ex_flow_2_22,3,2_ = 0
c792: -7.142857142857142 node_voltage_phase_angle_2,12,4,2_ + 7.142857142857142 node_voltage_phase_angle_2,13,4,2_ + 1 int_ex_flow_2_22,4,2_ = 0
c793: -3.907776475185619 node_voltage_phase_angle_2,12,1,1_ + 3.907776475185619 node_voltage_phase_angle_2,14,1,1_ + 1 int_ex_flow_2_23,1,1_ = 0
c794: -3.907776475185619 node_voltage_phase_angle_2,12,2,1_ + 3.907776475185619 node_voltage_phase_angle_2,14,2,1_ + 1 int_ex_flow_2_23,2,1_ = 0
c795: -3.907776475185619 node_voltage_phase_angle_2,12,3,1_ + 3.907776475185619 node_voltage_phase_angle_2,14,3,1_ + 1 int_ex_flow_2_23,3,1_ = 0
c796: -3.907776475185619 node_voltage_phase_angle_2,12,4,1_ + 3.907776475185619 node_voltage_phase_angle_2,14,4,1_ + 1 int_ex_flow_2_23,4,1_ = 0
c797: -3.907776475185619 node_voltage_phase_angle_2,12,1,2_ + 3.907776475185619 node_voltage_phase_angle_2,14,1,2_ + 1 int_ex_flow_2_23,1,2_ = 0
c798: -3.907776475185619 node_voltage_phase_angle_2,12,2,2_ + 3.907776475185619 node_voltage_phase_angle_2,14,2,2_ + 1 int_ex_flow_2_23,2,2_ = 0
c799: -3.907776475185619 node_voltage_phase_angle_2,12,3,2_ + 3.907776475185619 node_voltage_phase_angle_2,14,3,2_ + 1 int_ex_flow_2_23,3,2_ = 0
c800: -3.907776475185619 node_voltage_phase_angle_2,12,4,2_ + 3.907776475185619 node_voltage_phase_angle_2,14,4,2_ + 1 int_ex_flow_2_23,4,2_ = 0
c801: -7.668711656441719 node_voltage_phase_angle_2,12,1,1_ + 7.668711656441719 node_voltage_phase_angle_2,15,1,1_ + 1 int_ex_flow_2_24,1,1_ = 0
c802: -7.668711656441719 node_voltage_phase_angle_2,12,2,1_ + 7.668711656441719 node_voltage_phase_angle_2,15,2,1_ + 1 int_ex_flow_2_24,2,1_ = 0
c803: -7.668711656441719 node_voltage_phase_angle_2,12,3,1_ + 7.668711656441719 node_voltage_phase_angle_2,15,3,1_ + 1 int_ex_flow_2_24,3,1_ = 0
c804: -7.668711656441719 node_voltage_phase_angle_2,12,4,1_ + 7.668711656441719 node_voltage_phase_angle_2,15,4,1_ + 1 int_ex_flow_2_24,4,1_ = 0
c805: -7.668711656441719 node_voltage_phase_angle_2,12,1,2_ + 7.668711656441719 node_voltage_phase_angle_2,15,1,2_ + 1 int_ex_flow_2_24,1,2_ = 0
c806: -7.668711656441719 node_voltage_phase_angle_2,12,2,2_ + 7.668711656441719 node_voltage_phase_angle_2,15,2,2_ + 1 int_ex_flow_2_24,2,2_ = 0
c807: -7.668711656441719 node_voltage_phase_angle_2,12,3,2_ + 7.668711656441719 node_voltage_phase_angle_2,15,3,2_ + 1 int_ex_flow_2_24,3,2_ = 0
c808: -7.668711656441719 node_voltage_phase_angle_2,12,4,2_ + 7.668711656441719 node_voltage_phase_angle_2,15,4,2_ + 1 int_ex_flow_2_24,4,2_ = 0
c809: -5.032712632108707 node_voltage_phase_angle_2,12,1,1_ + 5.032712632108707 node_voltage_phase_angle_2,16,1,1_ + 1 int_ex_flow_2_25,1,1_ = 0
c810: -5.032712632108707 node_voltage_phase_angle_2,12,2,1_ + 5.032712632108707 node_voltage_phase_angle_2,16,2,1_ + 1 int_ex_flow_2_25,2,1_ = 0
c811: -5.032712632108707 node_voltage_phase_angle_2,12,3,1_ + 5.032712632108707 node_voltage_phase_angle_2,16,3,1_ + 1 int_ex_flow_2_25,3,1_ = 0
c812: -5.032712632108707 node_voltage_phase_angle_2,12,4,1_ + 5.032712632108707 node_voltage_phase_angle_2,16,4,1_ + 1 int_ex_flow_2_25,4,1_ = 0
c813: -5.032712632108707 node_voltage_phase_angle_2,12,1,2_ + 5.032712632108707 node_voltage_phase_angle_2,16,1,2_ + 1 int_ex_flow_2_25,1,2_ = 0
c814: -5.032712632108707 node_voltage_phase_angle_2,12,2,2_ + 5.032712632108707 node_voltage_phase_angle_2,16,2,2_ + 1 int_ex_flow_2_25,2,2_ = 0
c815: -5.032712632108707 node_voltage_phase_angle_2,12,3,2_ + 5.032712632108707 node_voltage_phase_angle_2,16,3,2_ + 1 int_ex_flow_2_25,3,2_ = 0
c816: -5.032712632108707 node_voltage_phase_angle_2,12,4,2_ + 5.032712632108707 node_voltage_phase_angle_2,16,4,2_ + 1 int_ex_flow_2_25,4,2_ = 0
c817: -5.007511266900351 node_voltage_phase_angle_2,14,1,1_ + 5.007511266900351 node_voltage_phase_angle_2,15,1,1_ + 1 int_ex_flow_2_26,1,1_ = 0
c818: -5.007511266900351 node_voltage_phase_angle_2,14,2,1_ + 5.007511266900351 node_voltage_phase_angle_2,15,2,1_ + 1 int_ex_flow_2_26,2,1_ = 0
c819: -5.007511266900351 node_voltage_phase_angle_2,14,3,1_ + 5.007511266900351 node_voltage_phase_angle_2,15,3,1_ + 1 int_ex_flow_2_26,3,1_ = 0
c820: -5.007511266900351 node_voltage_phase_angle_2,14,4,1_ + 5.007511266900351 node_voltage_phase_angle_2,15,4,1_ + 1 int_ex_flow_2_26,4,1_ = 0
c821: -5.007511266900351 node_voltage_phase_angle_2,14,1,2_ + 5.007511266900351 node_voltage_phase_angle_2,15,1,2_ + 1 int_ex_flow_2_26,1,2_ = 0
c822: -5.007511266900351 node_voltage_phase_angle_2,14,2,2_ + 5.007511266900351 node_voltage_phase_angle_2,15,2,2_ + 1 int_ex_flow_2_26,2,2_ = 0
c823: -5.007511266900351 node_voltage_phase_angle_2,14,3,2_ + 5.007511266900351 node_voltage_phase_angle_2,15,3,2_ + 1 int_ex_flow_2_26,3,2_ = 0
c824: -5.007511266900351 node_voltage_phase_angle_2,14,4,2_ + 5.007511266900351 node_voltage_phase_angle_2,15,4,2_ + 1 int_ex_flow_2_26,4,2_ = 0
c825: -4.576659038901602 node_voltage_phase_angle_2,15,1,1_ + 4.576659038901602 node_voltage_phase_angle_2,18,1,1_ + 1 int_ex_flow_2_27,1,1_ = 0
c826: -4.576659038901602 node_voltage_phase_angle_2,15,2,1_ + 4.576659038901602 node_voltage_phase_angle_2,18,2,1_ + 1 int_ex_flow_2_27,2,1_ = 0
c827: -4.576659038901602 node_voltage_phase_angle_2,15,3,1_ + 4.576659038901602 node_voltage_phase_angle_2,18,3,1_ + 1 int_ex_flow_2_27,3,1_ = 0
c828: -4.576659038901602 node_voltage_phase_angle_2,15,4,1_ + 4.576659038901602 node_voltage_phase_angle_2,18,4,1_ + 1 int_ex_flow_2_27,4,1_ = 0
c829: -4.576659038901602 node_voltage_phase_angle_2,15,1,2_ + 4.576659038901602 node_voltage_phase_angle_2,18,1,2_ + 1 int_ex_flow_2_27,1,2_ = 0
c830: -4.576659038901602 node_voltage_phase_angle_2,15,2,2_ + 4.576659038901602 node_voltage_phase_angle_2,18,2,2_ + 1 int_ex_flow_2_27,2,2_ = 0
c831: -4.576659038901602 node_voltage_phase_angle_2,15,3,2_ + 4.576659038901602 node_voltage_phase_angle_2,18,3,2_ + 1 int_ex_flow_2_27,3,2_ = 0
c832: -4.576659038901602 node_voltage_phase_angle_2,15,4,2_ + 4.576659038901602 node_voltage_phase_angle_2,18,4,2_ + 1 int_ex_flow_2_27,4,2_ = 0
c833: -4.9504950495049505 node_voltage_phase_angle_2,15,1,1_ + 4.9504950495049505 node_voltage_phase_angle_2,23,1,1_ + 1 int_ex_flow_2_28,1,1_ = 0
c834: -4.9504950495049505 node_voltage_phase_angle_2,15,2,1_ + 4.9504950495049505 node_voltage_phase_angle_2,23,2,1_ + 1 int_ex_flow_2_28,2,1_ = 0
c835: -4.9504950495049505 node_voltage_phase_angle_2,15,3,1_ + 4.9504950495049505 node_voltage_phase_angle_2,23,3,1_ + 1 int_ex_flow_2_28,3,1_ = 0
c836: -4.9504950495049505 node_voltage_phase_angle_2,15,4,1_ + 4.9504950495049505 node_voltage_phase_angle_2,23,4,1_ + 1 int_ex_flow_2_28,4,1_ = 0
c837: -4.9504950495049505 node_voltage_phase_angle_2,15,1,2_ + 4.9504950495049505 node_voltage_phase_angle_2,23,1,2_ + 1 int_ex_flow_2_28,1,2_ = 0
c838: -4.9504950495049505 node_voltage_phase_angle_2,15,2,2_ + 4.9504950495049505 node_voltage_phase_angle_2,23,2,2_ + 1 int_ex_flow_2_28,2,2_ = 0
c839: -4.9504950495049505 node_voltage_phase_angle_2,15,3,2_ + 4.9504950495049505 node_voltage_phase_angle_2,23,3,2_ + 1 int_ex_flow_2_28,3,2_ = 0
c840: -4.9504950495049505 node_voltage_phase_angle_2,15,4,2_ + 4.9504950495049505 node_voltage_phase_angle_2,23,4,2_ + 1 int_ex_flow_2_28,4,2_ = 0
c841: -5.200208008320333 node_voltage_phase_angle_2,16,1,1_ + 5.200208008320333 node_voltage_phase_angle_2,17,1,1_ + 1 int_ex_flow_2_29,1,1_ = 0
c842: -5.200208008320333 node_voltage_phase_angle_2,16,2,1_ + 5.200208008320333 node_voltage_phase_angle_2,17,2,1_ + 1 int_ex_flow_2_29,2,1_ = 0
c843: -5.200208008320333 node_voltage_phase_angle_2,16,3,1_ + 5.200208008320333 node_voltage_phase_angle_2,17,3,1_ + 1 int_ex_flow_2_29,3,1_ = 0
c844: -5.200208008320333 node_voltage_phase_angle_2,16,4,1_ + 5.200208008320333 node_voltage_phase_angle_2,17,4,1_ + 1 int_ex_flow_2_29,4,1_ = 0
c845: -5.200208008320333 node_voltage_phase_angle_2,16,1,2_ + 5.200208008320333 node_voltage_phase_angle_2,17,1,2_ + 1 int_ex_flow_2_29,1,2_ = 0
c846: -5.200208008320333 node_voltage_phase_angle_2,16,2,2_ + 5.200208008320333 node_voltage_phase_angle_2,17,2,2_ + 1 int_ex_flow_2_29,2,2_ = 0
c847: -5.200208008320333 node_voltage_phase_angle_2,16,3,2_ + 5.200208008320333 node_voltage_phase_angle_2,17,3,2_ + 1 int_ex_flow_2_29,3,2_ = 0
c848: -5.200208008320333 node_voltage_phase_angle_2,16,4,2_ + 5.200208008320333 node_voltage_phase_angle_2,17,4,2_ + 1 int_ex_flow_2_29,4,2_ = 0
c849: -7.739938080495356 node_voltage_phase_angle_2,18,1,1_ + 7.739938080495356 node_voltage_phase_angle_2,19,1,1_ + 1 int_ex_flow_2_30,1,1_ = 0
c850: -7.739938080495356 node_voltage_phase_angle_2,18,2,1_ + 7.739938080495356 node_voltage_phase_angle_2,19,2,1_ + 1 int_ex_flow_2_30,2,1_ = 0
c851: -7.739938080495356 node_voltage_phase_angle_2,18,3,1_ + 7.739938080495356 node_voltage_phase_angle_2,19,3,1_ + 1 int_ex_flow_2_30,3,1_ = 0
c852: -7.739938080495356 node_voltage_phase_angle_2,18,4,1_ + 7.739938080495356 node_voltage_phase_angle_2,19,4,1_ + 1 int_ex_flow_2_30,4,1_ = 0
c853: -7.739938080495356 node_voltage_phase_angle_2,18,1,2_ + 7.739938080495356 node_voltage_phase_angle_2,19,1,2_ + 1 int_ex_flow_2_30,1,2_ = 0
c854: -7.739938080495356 node_voltage_phase_angle_2,18,2,2_ + 7.739938080495356 node_voltage_phase_angle_2,19,2,2_ + 1 int_ex_flow_2_30,2,2_ = 0
c855: -7.739938080495356 node_voltage_phase_angle_2,18,3,2_ + 7.739938080495356 node_voltage_phase_angle_2,19,3,2_ + 1 int_ex_flow_2_30,3,2_ = 0
c856: -7.739938080495356 node_voltage_phase_angle_2,18,4,2_ + 7.739938080495356 node_voltage_phase_angle_2,19,4,2_ + 1 int_ex_flow_2_30,4,2_ = 0
c857: -14.705882352941176 node_voltage_phase_angle_2,19,1,1_ + 14.705882352941176 node_voltage_phase_angle_2,20,1,1_ + 1 int_ex_flow_2_31,1,1_ = 0
c858: -14.705882352941176 node_voltage_phase_angle_2,19,2,1_ + 14.705882352941176 node_voltage_phase_angle_2,20,2,1_ + 1 int_ex_flow_2_31,2,1_ = 0
c859: -14.705882352941176 node_voltage_phase_angle_2,19,3,1_ + 14.705882352941176 node_voltage_phase_angle_2,20,3,1_ + 1 int_ex_flow_2_31,3,1_ = 0
c860: -14.705882352941176 node_voltage_phase_angle_2,19,4,1_ + 14.705882352941176 node_voltage_phase_angle_2,20,4,1_ + 1 int_ex_flow_2_31,4,1_ = 0
c861: -14.705882352941176 node_voltage_phase_angle_2,19,1,2_ + 14.705882352941176 node_voltage_phase_angle_2,20,1,2_ + 1 int_ex_flow_2_31,1,2_ = 0
c862: -14.705882352941176 node_voltage_phase_angle_2,19,2,2_ + 14.705882352941176 node_voltage_phase_angle_2,20,2,2_ + 1 int_ex_flow_2_31,2,2_ = 0
c863: -14.705882352941176 node_voltage_phase_angle_2,19,3,2_ + 14.705882352941176 node_voltage_phase_angle_2,20,3,2_ + 1 int_ex_flow_2_31,3,2_ = 0
c864: -14.705882352941176 node_voltage_phase_angle_2,19,4,2_ + 14.705882352941176 node_voltage_phase_angle_2,20,4,2_ + 1 int_ex_flow_2_31,4,2_ = 0
c865: -42.37288135593221 node_voltage_phase_angle_2,21,1,1_ + 42.37288135593221 node_voltage_phase_angle_2,22,1,1_ + 1 int_ex_flow_2_32,1,1_ = 0
c866: -42.37288135593221 node_voltage_phase_angle_2,21,2,1_ + 42.37288135593221 node_voltage_phase_angle_2,22,2,1_ + 1 int_ex_flow_2_32,2,1_ = 0
c867: -42.37288135593221 node_voltage_phase_angle_2,21,3,1_ + 42.37288135593221 node_voltage_phase_angle_2,22,3,1_ + 1 int_ex_flow_2_32,3,1_ = 0
c868: -42.37288135593221 node_voltage_phase_angle_2,21,4,1_ + 42.37288135593221 node_voltage_phase_angle_2,22,4,1_ + 1 int_ex_flow_2_32,4,1_ = 0
c869: -42.37288135593221 node_voltage_phase_angle_2,21,1,2_ + 42.37288135593221 node_voltage_phase_angle_2,22,1,2_ + 1 int_ex_flow_2_32,1,2_ = 0
c870: -42.37288135593221 node_voltage_phase_angle_2,21,2,2_ + 42.37288135593221 node_voltage_phase_angle_2,22,2,2_ + 1 int_ex_flow_2_32,2,2_ = 0
c871: -42.37288135593221 node_voltage_phase_angle_2,21,3,2_ + 42.37288135593221 node_voltage_phase_angle_2,22,3,2_ + 1 int_ex_flow_2_32,3,2_ = 0
c872: -42.37288135593221 node_voltage_phase_angle_2,21,4,2_ + 42.37288135593221 node_voltage_phase_angle_2,22,4,2_ + 1 int_ex_flow_2_32,4,2_ = 0
c873: -5.58659217877095 node_voltage_phase_angle_2,22,1,1_ + 5.58659217877095 node_voltage_phase_angle_2,24,1,1_ + 1 int_ex_flow_2_33,1,1_ = 0
c874: -5.58659217877095 node_voltage_phase_angle_2,22,2,1_ + 5.58659217877095 node_voltage_phase_angle_2,24,2,1_ + 1 int_ex_flow_2_33,2,1_ = 0
c875: -5.58659217877095 node_voltage_phase_angle_2,22,3,1_ + 5.58659217877095 node_voltage_phase_angle_2,24,3,1_ + 1 int_ex_flow_2_33,3,1_ = 0
c876: -5.58659217877095 node_voltage_phase_angle_2,22,4,1_ + 5.58659217877095 node_voltage_phase_angle_2,24,4,1_ + 1 int_ex_flow_2_33,4,1_ = 0
c877: -5.58659217877095 node_voltage_phase_angle_2,22,1,2_ + 5.58659217877095 node_voltage_phase_angle_2,24,1,2_ + 1 int_ex_flow_2_33,1,2_ = 0
c878: -5.58659217877095 node_voltage_phase_angle_2,22,2,2_ + 5.58659217877095 node_voltage_phase_angle_2,24,2,2_ + 1 int_ex_flow_2_33,2,2_ = 0
c879: -5.58659217877095 node_voltage_phase_angle_2,22,3,2_ + 5.58659217877095 node_voltage_phase_angle_2,24,3,2_ + 1 int_ex_flow_2_33,3,2_ = 0
c880: -5.58659217877095 node_voltage_phase_angle_2,22,4,2_ + 5.58659217877095 node_voltage_phase_angle_2,24,4,2_ + 1 int_ex_flow_2_33,4,2_ = 0
c881: -3.7037037037037033 node_voltage_phase_angle_2,23,1,1_ + 3.7037037037037033 node_voltage_phase_angle_2,24,1,1_ + 1 int_ex_flow_2_34,1,1_ = 0
c882: -3.7037037037037033 node_voltage_phase_angle_2,23,2,1_ + 3.7037037037037033 node_voltage_phase_angle_2,24,2,1_ + 1 int_ex_flow_2_34,2,1_ = 0
c883: -3.7037037037037033 node_voltage_phase_angle_2,23,3,1_ + 3.7037037037037033 node_voltage_phase_angle_2,24,3,1_ + 1 int_ex_flow_2_34,3,1_ = 0
c884: -3.7037037037037033 node_voltage_phase_angle_2,23,4,1_ + 3.7037037037037033 node_voltage_phase_angle_2,24,4,1_ + 1 int_ex_flow_2_34,4,1_ = 0
c885: -3.7037037037037033 node_voltage_phase_angle_2,23,1,2_ + 3.7037037037037033 node_voltage_phase_angle_2,24,1,2_ + 1 int_ex_flow_2_34,1,2_ = 0
c886: -3.7037037037037033 node_voltage_phase_angle_2,23,2,2_ + 3.7037037037037033 node_voltage_phase_angle_2,24,2,2_ + 1 int_ex_flow_2_34,2,2_ = 0
c887: -3.7037037037037033 node_voltage_phase_angle_2,23,3,2_ + 3.7037037037037033 node_voltage_phase_angle_2,24,3,2_ + 1 int_ex_flow_2_34,3,2_ = 0
c888: -3.7037037037037033 node_voltage_phase_angle_2,23,4,2_ + 3.7037037037037033 node_voltage_phase_angle_2,24,4,2_ + 1 int_ex_flow_2_34,4,2_ = 0
c889: -3.037667071688943 node_voltage_phase_angle_2,24,1,1_ + 3.037667071688943 node_voltage_phase_angle_2,25,1,1_ + 1 int_ex_flow_2_35,1,1_ = 0
c890: -3.037667071688943 node_voltage_phase_angle_2,24,2,1_ + 3.037667071688943 node_voltage_phase_angle_2,25,2,1_ + 1 int_ex_flow_2_35,2,1_ = 0
c891: -3.037667071688943 node_voltage_phase_angle_2,24,3,1_ + 3.037667071688943 node_voltage_phase_angle_2,25,3,1_ + 1 int_ex_flow_2_35,3,1_ = 0
c892: -3.037667071688943 node_voltage_phase_angle_2,24,4,1_ + 3.037667071688943 node_voltage_phase_angle_2,25,4,1_ + 1 int_ex_flow_2_35,4,1_ = 0
c893: -3.037667071688943 node_voltage_phase_angle_2,24,1,2_ + 3.037667071688943 node_voltage_phase_angle_2,25,1,2_ + 1 int_ex_flow_2_35,1,2_ = 0
c894: -3.037667071688943 node_voltage_phase_angle_2,24,2,2_ + 3.037667071688943 node_voltage_phase_angle_2,25,2,2_ + 1 int_ex_flow_2_35,2,2_ = 0
c895: -3.037667071688943 node_voltage_phase_angle_2,24,3,2_ + 3.037667071688943 node_voltage_phase_angle_2,25,3,2_ + 1 int_ex_flow_2_35,3,2_ = 0
c896: -3.037667071688943 node_voltage_phase_angle_2,24,4,2_ + 3.037667071688943 node_voltage_phase_angle_2,25,4,2_ + 1 int_ex_flow_2_35,4,2_ = 0
c897: -2.6315789473684212 node_voltage_phase_angle_2,25,1,1_ + 2.6315789473684212 node_voltage_phase_angle_2,26,1,1_ + 1 int_ex_flow_2_36,1,1_ = 0
c898: -2.6315789473684212 node_voltage_phase_angle_2,25,2,1_ + 2.6315789473684212 node_voltage_phase_angle_2,26,2,1_ + 1 int_ex_flow_2_36,2,1_ = 0
c899: -2.6315789473684212 node_voltage_phase_angle_2,25,3,1_ + 2.6315789473684212 node_voltage_phase_angle_2,26,3,1_ + 1 int_ex_flow_2_36,3,1_ = 0
c900: -2.6315789473684212 node_voltage_phase_angle_2,25,4,1_ + 2.6315789473684212 node_voltage_phase_angle_2,26,4,1_ + 1 int_ex_flow_2_36,4,1_ = 0
c901: -2.6315789473684212 node_voltage_phase_angle_2,25,1,2_ + 2.6315789473684212 node_voltage_phase_angle_2,26,1,2_ + 1 int_ex_flow_2_36,1,2_ = 0
c902: -2.6315789473684212 node_voltage_phase_angle_2,25,2,2_ + 2.6315789473684212 node_voltage_phase_angle_2,26,2,2_ + 1 int_ex_flow_2_36,2,2_ = 0
c903: -2.6315789473684212 node_voltage_phase_angle_2,25,3,2_ + 2.6315789473684212 node_voltage_phase_angle_2,26,3,2_ + 1 int_ex_flow_2_36,3,2_ = 0
c904: -2.6315789473684212 node_voltage_phase_angle_2,25,4,2_ + 2.6315789473684212 node_voltage_phase_angle_2,26,4,2_ + 1 int_ex_flow_2_36,4,2_ = 0
c905: -4.791566842357451 node_voltage_phase_angle_2,25,1,1_ + 4.791566842357451 node_voltage_phase_angle_2,27,1,1_ + 1 int_ex_flow_2_37,1,1_ = 0
c906: -4.791566842357451 node_voltage_phase_angle_2,25,2,1_ + 4.791566842357451 node_voltage_phase_angle_2,27,2,1_ + 1 int_ex_flow_2_37,2,1_ = 0
c907: -4.791566842357451 node_voltage_phase_angle_2,25,3,1_ + 4.791566842357451 node_voltage_phase_angle_2,27,3,1_ + 1 int_ex_flow_2_37,3,1_ = 0
c908: -4.791566842357451 node_voltage_phase_angle_2,25,4,1_ + 4.791566842357451 node_voltage_phase_angle_2,27,4,1_ + 1 int_ex_flow_2_37,4,1_ = 0
c909: -4.791566842357451 node_voltage_phase_angle_2,25,1,2_ + 4.791566842357451 node_voltage_phase_angle_2,27,1,2_ + 1 int_ex_flow_2_37,1,2_ = 0
c910: -4.791566842357451 node_voltage_phase_angle_2,25,2,2_ + 4.791566842357451 node_voltage_phase_angle_2,27,2,2_ + 1 int_ex_flow_2_37,2,2_ = 0
c911: -4.791566842357451 node_voltage_phase_angle_2,25,3,2_ + 4.791566842357451 node_voltage_phase_angle_2,27,3,2_ + 1 int_ex_flow_2_37,3,2_ = 0
c912: -4.791566842357451 node_voltage_phase_angle_2,25,4,2_ + 4.791566842357451 node_voltage_phase_angle_2,27,4,2_ + 1 int_ex_flow_2_37,4,2_ = 0
c913: 2.525252525252525 node_voltage_phase_angle_2,27,1,1_ - 2.525252525252525 node_voltage_phase_angle_2,28,1,1_ + 1 int_ex_flow_2_38,1,1_ = 0
c914: 2.525252525252525 node_voltage_phase_angle_2,27,2,1_ - 2.525252525252525 node_voltage_phase_angle_2,28,2,1_ + 1 int_ex_flow_2_38,2,1_ = 0
c915: 2.525252525252525 node_voltage_phase_angle_2,27,3,1_ - 2.525252525252525 node_voltage_phase_angle_2,28,3,1_ + 1 int_ex_flow_2_38,3,1_ = 0
c916: 2.525252525252525 node_voltage_phase_angle_2,27,4,1_ - 2.525252525252525 node_voltage_phase_angle_2,28,4,1_ + 1 int_ex_flow_2_38,4,1_ = 0
c917: 2.525252525252525 node_voltage_phase_angle_2,27,1,2_ - 2.525252525252525 node_voltage_phase_angle_2,28,1,2_ + 1 int_ex_flow_2_38,1,2_ = 0
c918: 2.525252525252525 node_voltage_phase_angle_2,27,2,2_ - 2.525252525252525 node_voltage_phase_angle_2,28,2,2_ + 1 int_ex_flow_2_38,2,2_ = 0
c919: 2.525252525252525 node_voltage_phase_angle_2,27,3,2_ - 2.525252525252525 node_voltage_phase_angle_2,28,3,2_ + 1 int_ex_flow_2_38,3,2_ = 0
c920: 2.525252525252525 node_voltage_phase_angle_2,27,4,2_ - 2.525252525252525 node_voltage_phase_angle_2,28,4,2_ + 1 int_ex_flow_2_38,4,2_ = 0
c921: -2.4078979051288227 node_voltage_phase_angle_2,27,1,1_ + 2.4078979051288227 node_voltage_phase_angle_2,29,1,1_ + 1 int_ex_flow_2_39,1,1_ = 0
c922: -2.4078979051288227 node_voltage_phase_angle_2,27,2,1_ + 2.4078979051288227 node_voltage_phase_angle_2,29,2,1_ + 1 int_ex_flow_2_39,2,1_ = 0
c923: -2.4078979051288227 node_voltage_phase_angle_2,27,3,1_ + 2.4078979051288227 node_voltage_phase_angle_2,29,3,1_ + 1 int_ex_flow_2_39,3,1_ = 0
c924: -2.4078979051288227 node_voltage_phase_angle_2,27,4,1_ + 2.4078979051288227 node_voltage_phase_angle_2,29,4,1_ + 1 int_ex_flow_2_39,4,1_ = 0
c925: -2.4078979051288227 node_voltage_phase_angle_2,27,1,2_ + 2.4078979051288227 node_voltage_phase_angle_2,29,1,2_ + 1 int_ex_flow_2_39,1,2_ = 0
c926: -2.4078979051288227 node_voltage_phase_angle_2,27,2,2_ + 2.4078979051288227 node_voltage_phase_angle_2,29,2,2_ + 1 int_ex_flow_2_39,2,2_ = 0
c927: -2.4078979051288227 node_voltage_phase_angle_2,27,3,2_ + 2.4078979051288227 node_voltage_phase_angle_2,29,3,2_ + 1 int_ex_flow_2_39,3,2_ = 0
c928: -2.4078979051288227 node_voltage_phase_angle_2,27,4,2_ + 2.4078979051288227 node_voltage_phase_angle_2,29,4,2_ + 1 int_ex_flow_2_39,4,2_ = 0
c929: -1.6592002654720424 node_voltage_phase_angle_2,27,1,1_ + 1.6592002654720424 node_voltage_phase_angle_2,30,1,1_ + 1 int_ex_flow_2_40,1,1_ = 0
c930: -1.6592002654720424 node_voltage_phase_angle_2,27,2,1_ + 1.6592002654720424 node_voltage_phase_angle_2,30,2,1_ + 1 int_ex_flow_2_40,2,1_ = 0
c931: -1.6592002654720424 node_voltage_phase_angle_2,27,3,1_ + 1.6592002654720424 node_voltage_phase_angle_2,30,3,1_ + 1 int_ex_flow_2_40,3,1_ = 0
c932: -1.6592002654720424 node_voltage_phase_angle_2,27,4,1_ + 1.6592002654720424 node_voltage_phase_angle_2,30,4,1_ + 1 int_ex_flow_2_40,4,1_ = 0
c933: -1.6592002654720424 node_voltage_phase_angle_2,27,1,2_ + 1.6592002654720424 node_voltage_phase_angle_2,30,1,2_ + 1 int_ex_flow_2_40,1,2_ = 0
c934: -1.6592002654720424 node_voltage_phase_angle_2,27,2,2_ + 1.6592002654720424 node_voltage_phase_angle_2,30,2,2_ + 1 int_ex_flow_2_40,2,2_ = 0
c935: -1.6592002654720424 node_voltage_phase_angle_2,27,3,2_ + 1.6592002654720424 node_voltage_phase_angle_2,30,3,2_ + 1 int_ex_flow_2_40,3,2_ = 0
c936: -1.6592002654720424 node_voltage_phase_angle_2,27,4,2_ + 1.6592002654720424 node_voltage_phase_angle_2,30,4,2_ + 1 int_ex_flow_2_40,4,2_ = 0
c937: -2.2060445621001543 node_voltage_phase_angle_2,29,1,1_ + 2.2060445621001543 node_voltage_phase_angle_2,30,1,1_ + 1 int_ex_flow_2_41,1,1_ = 0
c938: -2.2060445621001543 node_voltage_phase_angle_2,29,2,1_ + 2.2060445621001543 node_voltage_phase_angle_2,30,2,1_ + 1 int_ex_flow_2_41,2,1_ = 0
c939: -2.2060445621001543 node_voltage_phase_angle_2,29,3,1_ + 2.2060445621001543 node_voltage_phase_angle_2,30,3,1_ + 1 int_ex_flow_2_41,3,1_ = 0
c940: -2.2060445621001543 node_voltage_phase_angle_2,29,4,1_ + 2.2060445621001543 node_voltage_phase_angle_2,30,4,1_ + 1 int_ex_flow_2_41,4,1_ = 0
c941: -2.2060445621001543 node_voltage_phase_angle_2,29,1,2_ + 2.2060445621001543 node_voltage_phase_angle_2,30,1,2_ + 1 int_ex_flow_2_41,1,2_ = 0
c942: -2.2060445621001543 node_voltage_phase_angle_2,29,2,2_ + 2.2060445621001543 node_voltage_phase_angle_2,30,2,2_ + 1 int_ex_flow_2_41,2,2_ = 0
c943: -2.2060445621001543 node_voltage_phase_angle_2,29,3,2_ + 2.2060445621001543 node_voltage_phase_angle_2,30,3,2_ + 1 int_ex_flow_2_41,3,2_ = 0
c944: -2.2060445621001543 node_voltage_phase_angle_2,29,4,2_ + 2.2060445621001543 node_voltage_phase_angle_2,30,4,2_ + 1 int_ex_flow_2_41,4,2_ = 0
c945: -16.666666666666668 node_voltage_phase_angle_3,1,1,1_ + 16.666666666666668 node_voltage_phase_angle_3,2,1,1_ + 1 int_ex_flow_3_1,1,1_ = 0
c946: -16.666666666666668 node_voltage_phase_angle_3,1,2,1_ + 16.666666666666668 node_voltage_phase_angle_3,2,2,1_ + 1 int_ex_flow_3_1,2,1_ = 0
c947: -16.666666666666668 node_voltage_phase_angle_3,1,3,1_ + 16.666666666666668 node_voltage_phase_angle_3,2,3,1_ + 1 int_ex_flow_3_1,3,1_ = 0
c948: -16.666666666666668 node_voltage_phase_angle_3,1,4,1_ + 16.666666666666668 node_voltage_phase_angle_3,2,4,1_ + 1 int_ex_flow_3_1,4,1_ = 0
c949: -16.666666666666668 node_voltage_phase_angle_3,1,1,2_ + 16.666666666666668 node_voltage_phase_angle_3,2,1,2_ + 1 int_ex_flow_3_1,1,2_ = 0
c950: -16.666666666666668 node_voltage_phase_angle_3,1,2,2_ + 16.666666666666668 node_voltage_phase_angle_3,2,2,2_ + 1 int_ex_flow_3_1,2,2_ = 0
c951: -16.666666666666668 node_voltage_phase_angle_3,1,3,2_ + 16.666666666666668 node_voltage_phase_angle_3,2,3,2_ + 1 int_ex_flow_3_1,3,2_ = 0
c952: -16.666666666666668 node_voltage_phase_angle_3,1,4,2_ + 16.666666666666668 node_voltage_phase_angle_3,2,4,2_ + 1 int_ex_flow_3_1,4,2_ = 0
c953: -4.166666666666667 node_voltage_phase_angle_3,1,1,1_ + 4.166666666666667 node_voltage_phase_angle_3,3,1,1_ + 1 int_ex_flow_3_2,1,1_ = 0
c954: -4.166666666666667 node_voltage_phase_angle_3,1,2,1_ + 4.166666666666667 node_voltage_phase_angle_3,3,2,1_ + 1 int_ex_flow_3_2,2,1_ = 0
c955: -4.166666666666667 node_voltage_phase_angle_3,1,3,1_ + 4.166666666666667 node_voltage_phase_angle_3,3,3,1_ + 1 int_ex_flow_3_2,3,1_ = 0
c956: -4.166666666666667 node_voltage_phase_angle_3,1,4,1_ + 4.166666666666667 node_voltage_phase_angle_3,3,4,1_ + 1 int_ex_flow_3_2,4,1_ = 0
c957: -4.166666666666667 node_voltage_phase_angle_3,1,1,2_ + 4.166666666666667 node_voltage_phase_angle_3,3,1,2_ + 1 int_ex_flow_3_2,1,2_ = 0
c958: -4.166666666666667 node_voltage_phase_angle_3,1,2,2_ + 4.166666666666667 node_voltage_phase_angle_3,3,2,2_ + 1 int_ex_flow_3_2,2,2_ = 0
c959: -4.166666666666667 node_voltage_phase_angle_3,1,3,2_ + 4.166666666666667 node_voltage_phase_angle_3,3,3,2_ + 1 int_ex_flow_3_2,3,2_ = 0
c960: -4.166666666666667 node_voltage_phase_angle_3,1,4,2_ + 4.166666666666667 node_voltage_phase_angle_3,3,4,2_ + 1 int_ex_flow_3_2,4,2_ = 0
c961: -5.555555555555555 node_voltage_phase_angle_3,2,1,1_ + 5.555555555555555 node_voltage_phase_angle_3,3,1,1_ + 1 int_ex_flow_3_3,1,1_ = 0
c962: -5.555555555555555 node_voltage_phase_angle_3,2,2,1_ + 5.555555555555555 node_voltage_phase_angle_3,3,2,1_ + 1 int_ex_flow_3_3,2,1_ = 0
c963: -5.555555555555555 node_voltage_phase_angle_3,2,3,1_ + 5.555555555555555 node_voltage_phase_angle_3,3,3,1_ + 1 int_ex_flow_3_3,3,1_ = 0
c964: -5.555555555555555 node_voltage_phase_angle_3,2,4,1_ + 5.555555555555555 node_voltage_phase_angle_3,3,4,1_ + 1 int_ex_flow_3_3,4,1_ = 0
c965: -5.555555555555555 node_voltage_phase_angle_3,2,1,2_ + 5.555555555555555 node_voltage_phase_angle_3,3,1,2_ + 1 int_ex_flow_3_3,1,2_ = 0
c966: -5.555555555555555 node_voltage_phase_angle_3,2,2,2_ + 5.555555555555555 node_voltage_phase_angle_3,3,2,2_ + 1 int_ex_flow_3_3,2,2_ = 0
c967: -5.555555555555555 node_voltage_phase_angle_3,2,3,2_ + 5.555555555555555 node_voltage_phase_angle_3,3,3,2_ + 1 int_ex_flow_3_3,3,2_ = 0
c968: -5.555555555555555 node_voltage_phase_angle_3,2,4,2_ + 5.555555555555555 node_voltage_phase_angle_3,3,4,2_ + 1 int_ex_flow_3_3,4,2_ = 0
c969: -5.555555555555555 node_voltage_phase_angle_3,2,1,1_ + 5.555555555555555 node_voltage_phase_angle_3,4,1,1_ + 1 int_ex_flow_3_4,1,1_ = 0
c970: -5.555555555555555 node_voltage_phase_angle_3,2,2,1_ + 5.555555555555555 node_voltage_phase_angle_3,4,2,1_ + 1 int_ex_flow_3_4,2,1_ = 0
c971: -5.555555555555555 node_voltage_phase_angle_3,2,3,1_ + 5.555555555555555 node_voltage_phase_angle_3,4,3,1_ + 1 int_ex_flow_3_4,3,1_ = 0
c972: -5.555555555555555 node_voltage_phase_angle_3,2,4,1_ + 5.555555555555555 node_voltage_phase_angle_3,4,4,1_ + 1 int_ex_flow_3_4,4,1_ = 0
c973: -5.555555555555555 node_voltage_phase_angle_3,2,1,2_ + 5.555555555555555 node_voltage_phase_angle_3,4,1,2_ + 1 int_ex_flow_3_4,1,2_ = 0
c974: -5.555555555555555 node_voltage_phase_angle_3,2,2,2_ + 5.555555555555555 node_voltage_phase_angle_3,4,2,2_ + 1 int_ex_flow_3_4,2,2_ = 0
c975: -5.555555555555555 node_voltage_phase_angle_3,2,3,2_ + 5.555555555555555 node_voltage_phase_angle_3,4,3,2_ + 1 int_ex_flow_3_4,3,2_ = 0
c976: -5.555555555555555 node_voltage_phase_angle_3,2,4,2_ + 5.555555555555555 node_voltage_phase_angle_3,4,4,2_ + 1 int_ex_flow_3_4,4,2_ = 0
c977: -8.333333333333334 node_voltage_phase_angle_3,2,1,1_ + 8.333333333333334 node_voltage_phase_angle_3,5,1,1_ + 1 int_ex_flow_3_5,1,1_ = 0
c978: -8.333333333333334 node_voltage_phase_angle_3,2,2,1_ + 8.333333333333334 node_voltage_phase_angle_3,5,2,1_ + 1 int_ex_flow_3_5,2,1_ = 0
c979: -8.333333333333334 node_voltage_phase_angle_3,2,3,1_ + 8.333333333333334 node_voltage_phase_angle_3,5,3,1_ + 1 int_ex_flow_3_5,3,1_ = 0
c980: -8.333333333333334 node_voltage_phase_angle_3,2,4,1_ + 8.333333333333334 node_voltage_phase_angle_3,5,4,1_ + 1 int_ex_flow_3_5,4,1_ = 0
c981: -8.333333333333334 node_voltage_phase_angle_3,2,1,2_ + 8.333333333333334 node_voltage_phase_angle_3,5,1,2_ + 1 int_ex_flow_3_5,1,2_ = 0
c982: -8.333333333333334 node_voltage_phase_angle_3,2,2,2_ + 8.333333333333334 node_voltage_phase_angle_3,5,2,2_ + 1 int_ex_flow_3_5,2,2_ = 0
c983: -8.333333333333334 node_voltage_phase_angle_3,2,3,2_ + 8.333333333333334 node_voltage_phase_angle_3,5,3,2_ + 1 int_ex_flow_3_5,3,2_ = 0
c984: -8.333333333333334 node_voltage_phase_angle_3,2,4,2_ + 8.333333333333334 node_voltage_phase_angle_3,5,4,2_ + 1 int_ex_flow_3_5,4,2_ = 0
c985: -33.333333333333336 node_voltage_phase_angle_3,3,1,1_ + 33.333333333333336 node_voltage_phase_angle_3,4,1,1_ + 1 int_ex_flow_3_6,1,1_ = 0
c986: -33.333333333333336 node_voltage_phase_angle_3,3,2,1_ + 33.333333333333336 node_voltage_phase_angle_3,4,2,1_ + 1 int_ex_flow_3_6,2,1_ = 0
c987: -33.333333333333336 node_voltage_phase_angle_3,3,3,1_ + 33.333333333333336 node_voltage_phase_angle_3,4,3,1_ + 1 int_ex_flow_3_6,3,1_ = 0
c988: -33.333333333333336 node_voltage_phase_angle_3,3,4,1_ + 33.333333333333336 node_voltage_phase_angle_3,4,4,1_ + 1 int_ex_flow_3_6,4,1_ = 0
c989: -33.333333333333336 node_voltage_phase_angle_3,3,1,2_ + 33.333333333333336 node_voltage_phase_angle_3,4,1,2_ + 1 int_ex_flow_3_6,1,2_ = 0
c990: -33.333333333333336 node_voltage_phase_angle_3,3,2,2_ + 33.333333333333336 node_voltage_phase_angle_3,4,2,2_ + 1 int_ex_flow_3_6,2,2_ = 0
c991: -33.333333333333336 node_voltage_phase_angle_3,3,3,2_ + 33.333333333333336 node_voltage_phase_angle_3,4,3,2_ + 1 int_ex_flow_3_6,3,2_ = 0
c992: -33.333333333333336 node_voltage_phase_angle_3,3,4,2_ + 33.333333333333336 node_voltage_phase_angle_3,4,4,2_ + 1 int_ex_flow_3_6,4,2_ = 0
c993: -4.166666666666667 node_voltage_phase_angle_3,4,1,1_ + 4.166666666666667 node_voltage_phase_angle_3,5,1,1_ + 1 int_ex_flow_3_7,1,1_ = 0
c994: -4.166666666666667 node_voltage_phase_angle_3,4,2,1_ + 4.166666666666667 node_voltage_phase_angle_3,5,2,1_ + 1 int_ex_flow_3_7,2,1_ = 0
c995: -4.166666666666667 node_voltage_phase_angle_3,4,3,1_ + 4.166666666666667 node_voltage_phase_angle_3,5,3,1_ + 1 int_ex_flow_3_7,3,1_ = 0
c996: -4.166666666666667 node_voltage_phase_angle_3,4,4,1_ + 4.166666666666667 node_voltage_phase_angle_3,5,4,1_ + 1 int_ex_flow_3_7,4,1_ = 0
c997: -4.166666666666667 node_voltage_phase_angle_3,4,1,2_ + 4.166666666666667 node_voltage_phase_angle_3,5,1,2_ + 1 int_ex_flow_3_7,1,2_ = 0
c998: -4.166666666666667 node_voltage_phase_angle_3,4,2,2_ + 4.166666666666667 node_voltage_phase_angle_3,5,2,2_ + 1 int_ex_flow_3_7,2,2_ = 0
c999: -4.166666666666667 node_voltage_phase_angle_3,4,3,2_ + 4.166666666666667 node_voltage_phase_angle_3,5,3,2_ + 1 int_ex_flow_3_7,3,2_ = 0
c1000: -4.166666666666667 node_voltage_phase_angle_3,4,4,2_ + 4.166666666666667 node_voltage_phase_angle_3,5,4,2_ + 1 int_ex_flow_3_7,4,2_ = 0
Bounds
gen_var_1_1,1,1_ >= 0
gen_var_1_2,1,1_ >= 0
gen_var_1_3,1,1_ >= 0
gen_var_1_4,1,1_ >= 0
gen_var_1_5,1,1_ >= 0
gen_var_1_6,1,1_ >= 0
gen_var_1_7,1,1_ >= 0
gen_var_1_8,1,1_ >= 0
gen_var_1_9,1,1_ >= 0
gen_var_1_10,1,1_ >= 0
gen_var_1_11,1,1_ >= 0
gen_var_1_12,1,1_ >= 0
gen_var_1_13,1,1_ >= 0
gen_var_1_14,1,1_ >= 0
gen_var_1_1,2,1_ >= 0
gen_var_1_2,2,1_ >= 0
gen_var_1_3,2,1_ >= 0
gen_var_1_4,2,1_ >= 0
gen_var_1_5,2,1_ >= 0
gen_var_1_6,2,1_ >= 0
gen_var_1_7,2,1_ >= 0
gen_var_1_8,2,1_ >= 0
gen_var_1_9,2,1_ >= 0
gen_var_1_10,2,1_ >= 0
gen_var_1_11,2,1_ >= 0
gen_var_1_12,2,1_ >= 0
gen_var_1_13,2,1_ >= 0
gen_var_1_14,2,1_ >= 0
gen_var_1_1,3,1_ >= 0
gen_var_1_2,3,1_ >= 0
gen_var_1_3,3,1_ >= 0
gen_var_1_4,3,1_ >= 0
gen_var_1_5,3,1_ >= 0
gen_var_1_6,3,1_ >= 0
gen_var_1_7,3,1_ >= 0
gen_var_1_8,3,1_ >= 0
gen_var_1_9,3,1_ >= 0
gen_var_1_10,3,1_ >= 0
gen_var_1_11,3,1_ >= 0
gen_var_1_12,3,1_ >= 0
gen_var_1_13,3,1_ >= 0
gen_var_1_14,3,1_ >= 0
gen_var_1_1,4,1_ >= 0
gen_var_1_2,4,1_ >= 0
gen_var_1_3,4,1_ >= 0
gen_var_1_4,4,1_ >= 0
gen_var_1_5,4,1_ >= 0
gen_var_1_6,4,1_ >= 0
gen_var_1_7,4,1_ >= 0
gen_var_1_8,4,1_ >= 0
gen_var_1_9,4,1_ >= 0
gen_var_1_10,4,1_ >= 0
gen_var_1_11,4,1_ >= 0
gen_var_1_12,4,1_ >= 0
gen_var_1_13,4,1_ >= 0
gen_var_1_14,4,1_ >= 0
gen_var_1_1,1,2_ >= 0
gen_var_1_2,1,2_ >= 0
gen_var_1_3,1,2_ >= 0
gen_var_1_4,1,2_ >= 0
gen_var_1_5,1,2_ >= 0
gen_var_1_6,1,2_ >= 0
gen_var_1_7,1,2_ >= 0
gen_var_1_8,1,2_ >= 0
gen_var_1_9,1,2_ >= 0
gen_var_1_10,1,2_ >= 0
gen_var_1_11,1,2_ >= 0
gen_var_1_12,1,2_ >= 0
gen_var_1_13,1,2_ >= 0
gen_var_1_14,1,2_ >= 0
gen_var_1_1,2,2_ >= 0
gen_var_1_2,2,2_ >= 0
gen_var_1_3,2,2_ >= 0
gen_var_1_4,2,2_ >= 0
gen_var_1_5,2,2_ >= 0
gen_var_1_6,2,2_ >= 0
gen_var_1_7,2,2_ >= 0
gen_var_1_8,2,2_ >= 0
gen_var_1_9,2,2_ >= 0
gen_var_1_10,2,2_ >= 0
gen_var_1_11,2,2_ >= 0
gen_var_1_12,2,2_ >= 0
gen_var_1_13,2,2_ >= 0
gen_var_1_14,2,2_ >= 0
gen_var_1_1,3,2_ >= 0
gen_var_1_2,3,2_ >= 0
gen_var_1_3,3,2_ >= 0
gen_var_1_4,3,2_ >= 0
gen_var_1_5,3,2_ >= 0
gen_var_1_6,3,2_ >= 0
gen_var_1_7,3,2_ >= 0
gen_var_1_8,3,2_ >= 0
gen_var_1_9,3,2_ >= 0
gen_var_1_10,3,2_ >= 0
gen_var_1_11,3,2_ >= 0
gen_var_1_12,3,2_ >= 0
gen_var_1_13,3,2_ >= 0
gen_var_1_14,3,2_ >= 0
gen_var_1_1,4,2_ >= 0
gen_var_1_2,4,2_ >= 0
gen_var_1_3,4,2_ >= 0
gen_var_1_4,4,2_ >= 0
gen_var_1_5,4,2_ >= 0
gen_var_1_6,4,2_ >= 0
gen_var_1_7,4,2_ >= 0
gen_var_1_8,4,2_ >= 0
gen_var_1_9,4,2_ >= 0
gen_var_1_10,4,2_ >= 0
gen_var_1_11,4,2_ >= 0
gen_var_1_12,4,2_ >= 0
gen_var_1_13,4,2_ >= 0
gen_var_1_14,4,2_ >= 0
gen_var_2_1,1,1_ >= 0
gen_var_2_2,1,1_ >= 0
gen_var_2_3,1,1_ >= 0
gen_var_2_4,1,1_ >= 0
gen_var_2_5,1,1_ >= 0
gen_var_2_6,1,1_ >= 0
gen_var_2_7,1,1_ >= 0
gen_var_2_8,1,1_ >= 0
gen_var_2_9,1,1_ >= 0
gen_var_2_10,1,1_ >= 0
gen_var_2_11,1,1_ >= 0
gen_var_2_12,1,1_ >= 0
gen_var_2_13,1,1_ >= 0
gen_var_2_14,1,1_ >= 0
gen_var_2_15,1,1_ >= 0
gen_var_2_16,1,1_ >= 0
gen_var_2_17,1,1_ >= 0
gen_var_2_18,1,1_ >= 0
gen_var_2_19,1,1_ >= 0
gen_var_2_20,1,1_ >= 0
gen_var_2_21,1,1_ >= 0
gen_var_2_22,1,1_ >= 0
gen_var_2_23,1,1_ >= 0
gen_var_2_24,1,1_ >= 0
gen_var_2_25,1,1_ >= 0
gen_var_2_26,1,1_ >= 0
gen_var_2_27,1,1_ >= 0
gen_var_2_28,1,1_ >= 0
gen_var_2_29,1,1_ >= 0
gen_var_2_30,1,1_ >= 0
gen_var_2_1,2,1_ >= 0
gen_var_2_2,2,1_ >= 0
gen_var_2_3,2,1_ >= 0
gen_var_2_4,2,1_ >= 0
gen_var_2_5,2,1_ >= 0
gen_var_2_6,2,1_ >= 0
gen_var_2_7,2,1_ >= 0
gen_var_2_8,2,1_ >= 0
gen_var_2_9,2,1_ >= 0
gen_var_2_10,2,1_ >= 0
gen_var_2_11,2,1_ >= 0
gen_var_2_12,2,1_ >= 0
gen_var_2_13,2,1_ >= 0
gen_var_2_14,2,1_ >= 0
gen_var_2_15,2,1_ >= 0
gen_var_2_16,2,1_ >= 0
gen_var_2_17,2,1_ >= 0
gen_var_2_18,2,1_ >= 0
gen_var_2_19,2,1_ >= 0
gen_var_2_20,2,1_ >= 0
gen_var_2_21,2,1_ >= 0
gen_var_2_22,2,1_ >= 0
gen_var_2_23,2,1_ >= 0
gen_var_2_24,2,1_ >= 0
gen_var_2_25,2,1_ >= 0
gen_var_2_26,2,1_ >= 0
gen_var_2_27,2,1_ >= 0
gen_var_2_28,2,1_ >= 0
gen_var_2_29,2,1_ >= 0
gen_var_2_30,2,1_ >= 0
gen_var_2_1,3,1_ >= 0
gen_var_2_2,3,1_ >= 0
gen_var_2_3,3,1_ >= 0
gen_var_2_4,3,1_ >= 0
gen_var_2_5,3,1_ >= 0
gen_var_2_6,3,1_ >= 0
gen_var_2_7,3,1_ >= 0
gen_var_2_8,3,1_ >= 0
gen_var_2_9,3,1_ >= 0
gen_var_2_10,3,1_ >= 0
gen_var_2_11,3,1_ >= 0
gen_var_2_12,3,1_ >= 0
gen_var_2_13,3,1_ >= 0
gen_var_2_14,3,1_ >= 0
gen_var_2_15,3,1_ >= 0
gen_var_2_16,3,1_ >= 0
gen_var_2_17,3,1_ >= 0
gen_var_2_18,3,1_ >= 0
gen_var_2_19,3,1_ >= 0
gen_var_2_20,3,1_ >= 0
gen_var_2_21,3,1_ >= 0
gen_var_2_22,3,1_ >= 0
gen_var_2_23,3,1_ >= 0
gen_var_2_24,3,1_ >= 0
gen_var_2_25,3,1_ >= 0
gen_var_2_26,3,1_ >= 0
gen_var_2_27,3,1_ >= 0
gen_var_2_28,3,1_ >= 0
gen_var_2_29,3,1_ >= 0
gen_var_2_30,3,1_ >= 0
gen_var_2_1,4,1_ >= 0
gen_var_2_2,4,1_ >= 0
gen_var_2_3,4,1_ >= 0
gen_var_2_4,4,1_ >= 0
gen_var_2_5,4,1_ >= 0
gen_var_2_6,4,1_ >= 0
gen_var_2_7,4,1_ >= 0
gen_var_2_8,4,1_ >= 0
gen_var_2_9,4,1_ >= 0
gen_var_2_10,4,1_ >= 0
gen_var_2_11,4,1_ >= 0
gen_var_2_12,4,1_ >= 0
gen_var_2_13,4,1_ >= 0
gen_var_2_14,4,1_ >= 0
gen_var_2_15,4,1_ >= 0
gen_var_2_16,4,1_ >= 0
gen_var_2_17,4,1_ >= 0
gen_var_2_18,4,1_ >= 0
gen_var_2_19,4,1_ >= 0
gen_var_2_20,4,1_ >= 0
gen_var_2_21,4,1_ >= 0
gen_var_2_22,4,1_ >= 0
gen_var_2_23,4,1_ >= 0
gen_var_2_24,4,1_ >= 0
gen_var_2_25,4,1_ >= 0
gen_var_2_26,4,1_ >= 0
gen_var_2_27,4,1_ >= 0
gen_var_2_28,4,1_ >= 0
gen_var_2_29,4,1_ >= 0
gen_var_2_30,4,1_ >= 0
gen_var_2_1,1,2_ >= 0
gen_var_2_2,1,2_ >= 0
gen_var_2_3,1,2_ >= 0
gen_var_2_4,1,2_ >= 0
gen_var_2_5,1,2_ >= 0
gen_var_2_6,1,2_ >= 0
gen_var_2_7,1,2_ >= 0
gen_var_2_8,1,2_ >= 0
gen_var_2_9,1,2_ >= 0
gen_var_2_10,1,2_ >= 0
gen_var_2_11,1,2_ >= 0
gen_var_2_12,1,2_ >= 0
gen_var_2_13,1,2_ >= 0
gen_var_2_14,1,2_ >= 0
gen_var_2_15,1,2_ >= 0
gen_var_2_16,1,2_ >= 0
gen_var_2_17,1,2_ >= 0
gen_var_2_18,1,2_ >= 0
gen_var_2_19,1,2_ >= 0
gen_var_2_20,1,2_ >= 0
gen_var_2_21,1,2_ >= 0
gen_var_2_22,1,2_ >= 0
gen_var_2_23,1,2_ >= 0
gen_var_2_24,1,2_ >= 0
gen_var_2_25,1,2_ >= 0
gen_var_2_26,1,2_ >= 0
gen_var_2_27,1,2_ >= 0
gen_var_2_28,1,2_ >= 0
gen_var_2_29,1,2_ >= 0
gen_var_2_30,1,2_ >= 0
gen_var_2_1,2,2_ >= 0
gen_var_2_2,2,2_ >= 0
gen_var_2_3,2,2_ >= 0
gen_var_2_4,2,2_ >= 0
gen_var_2_5,2,2_ >= 0
gen_var_2_6,2,2_ >= 0
gen_var_2_7,2,2_ >= 0
gen_var_2_8,2,2_ >= 0
gen_var_2_9,2,2_ >= 0
gen_var_2_10,2,2_ >= 0
gen_var_2_11,2,2_ >= 0
gen_var_2_12,2,2_ >= 0
gen_var_2_13,2,2_ >= 0
gen_var_2_14,2,2_ >= 0
gen_var_2_15,2,2_ >= 0
gen_var_2_16,2,2_ >= 0
gen_var_2_17,2,2_ >= 0
gen_var_2_18,2,2_ >= 0
gen_var_2_19,2,2_ >= 0
gen_var_2_20,2,2_ >= 0
gen_var_2_21,2,2_ >= 0
gen_var_2_22,2,2_ >= 0
gen_var_2_23,2,2_ >= 0
gen_var_2_24,2,2_ >= 0
gen_var_2_25,2,2_ >= 0
gen_var_2_26,2,2_ >= 0
gen_var_2_27,2,2_ >= 0
gen_var_2_28,2,2_ >= 0
gen_var_2_29,2,2_ >= 0
gen_var_2_30,2,2_ >= 0
gen_var_2_1,3,2_ >= 0
gen_var_2_2,3,2_ >= 0
gen_var_2_3,3,2_ >= 0
gen_var_2_4,3,2_ >= 0
gen_var_2_5,3,2_ >= 0
gen_var_2_6,3,2_ >= 0
gen_var_2_7,3,2_ >= 0
gen_var_2_8,3,2_ >= 0
gen_var_2_9,3,2_ >= 0
gen_var_2_10,3,2_ >= 0
gen_var_2_11,3,2_ >= 0
gen_var_2_12,3,2_ >= 0
gen_var_2_13,3,2_ >= 0
gen_var_2_14,3,2_ >= 0
gen_var_2_15,3,2_ >= 0
gen_var_2_16,3,2_ >= 0
gen_var_2_17,3,2_ >= 0
gen_var_2_18,3,2_ >= 0
gen_var_2_19,3,2_ >= 0
gen_var_2_20,3,2_ >= 0
gen_var_2_21,3,2_ >= 0
gen_var_2_22,3,2_ >= 0
gen_var_2_23,3,2_ >= 0
gen_var_2_24,3,2_ >= 0
gen_var_2_25,3,2_ >= 0
gen_var_2_26,3,2_ >= 0
gen_var_2_27,3,2_ >= 0
gen_var_2_28,3,2_ >= 0
gen_var_2_29,3,2_ >= 0
gen_var_2_30,3,2_ >= 0
gen_var_2_1,4,2_ >= 0
gen_var_2_2,4,2_ >= 0
gen_var_2_3,4,2_ >= 0
gen_var_2_4,4,2_ >= 0
gen_var_2_5,4,2_ >= 0
gen_var_2_6,4,2_ >= 0
gen_var_2_7,4,2_ >= 0
gen_var_2_8,4,2_ >= 0
gen_var_2_9,4,2_ >= 0
gen_var_2_10,4,2_ >= 0
gen_var_2_11,4,2_ >= 0
gen_var_2_12,4,2_ >= 0
gen_var_2_13,4,2_ >= 0
gen_var_2_14,4,2_ >= 0
gen_var_2_15,4,2_ >= 0
gen_var_2_16,4,2_ >= 0
gen_var_2_17,4,2_ >= 0
gen_var_2_18,4,2_ >= 0
gen_var_2_19,4,2_ >= 0
gen_var_2_20,4,2_ >= 0
gen_var_2_21,4,2_ >= 0
gen_var_2_22,4,2_ >= 0
gen_var_2_23,4,2_ >= 0
gen_var_2_24,4,2_ >= 0
gen_var_2_25,4,2_ >= 0
gen_var_2_26,4,2_ >= 0
gen_var_2_27,4,2_ >= 0
gen_var_2_28,4,2_ >= 0
gen_var_2_29,4,2_ >= 0
gen_var_2_30,4,2_ >= 0
gen_var_3_1,1,1_ >= 0
gen_var_3_2,1,1_ >= 0
gen_var_3_3,1,1_ >= 0
gen_var_3_4,1,1_ >= 0
gen_var_3_5,1,1_ >= 0
gen_var_3_1,2,1_ >= 0
gen_var_3_2,2,1_ >= 0
gen_var_3_3,2,1_ >= 0
gen_var_3_4,2,1_ >= 0
gen_var_3_5,2,1_ >= 0
gen_var_3_1,3,1_ >= 0
gen_var_3_2,3,1_ >= 0
gen_var_3_3,3,1_ >= 0
gen_var_3_4,3,1_ >= 0
gen_var_3_5,3,1_ >= 0
gen_var_3_1,4,1_ >= 0
gen_var_3_2,4,1_ >= 0
gen_var_3_3,4,1_ >= 0
gen_var_3_4,4,1_ >= 0
gen_var_3_5,4,1_ >= 0
gen_var_3_1,1,2_ >= 0
gen_var_3_2,1,2_ >= 0
gen_var_3_3,1,2_ >= 0
gen_var_3_4,1,2_ >= 0
gen_var_3_5,1,2_ >= 0
gen_var_3_1,2,2_ >= 0
gen_var_3_2,2,2_ >= 0
gen_var_3_3,2,2_ >= 0
gen_var_3_4,2,2_ >= 0
gen_var_3_5,2,2_ >= 0
gen_var_3_1,3,2_ >= 0
gen_var_3_2,3,2_ >= 0
gen_var_3_3,3,2_ >= 0
gen_var_3_4,3,2_ >= 0
gen_var_3_5,3,2_ >= 0
gen_var_3_1,4,2_ >= 0
gen_var_3_2,4,2_ >= 0
gen_var_3_3,4,2_ >= 0
gen_var_3_4,4,2_ >= 0
gen_var_3_5,4,2_ >= 0
shared_line_decision_var_1_ >= 0
shared_line_decision_var_2_ >= 0
shared_line_decision_var_3_ >= 0
shared_line_decision_var_4_ >= 0
shared_line_decision_var_5_ >= 0
shared_line_decision_var_6_ >= 0
int_line_decision_var_1_1_ >= 0
int_line_decision_var_1_2_ >= 0
int_line_decision_var_1_3_ >= 0
int_line_decision_var_1_4_ >= 0
int_line_decision_var_1_5_ >= 0
int_line_decision_var_1_6_ >= 0
int_line_decision_var_1_7_ >= 0
int_line_decision_var_1_8_ >= 0
int_line_decision_var_1_9_ >= 0
int_line_decision_var_1_10_ >= 0
int_line_decision_var_2_1_ >= 0
int_line_decision_var_2_2_ >= 0
int_line_decision_var_2_3_ >= 0
int_line_decision_var_2_4_ >= 0
int_line_decision_var_2_5_ >= 0
int_line_decision_var_2_6_ >= 0
int_line_decision_var_2_7_ >= 0
int_line_decision_var_2_8_ >= 0
int_line_decision_var_2_9_ >= 0
int_line_decision_var_2_10_ >= 0
int_line_decision_var_2_11_ >= 0
int_line_decision_var_2_12_ >= 0
int_line_decision_var_2_13_ >= 0
int_line_decision_var_2_14_ >= 0
int_line_decision_var_2_15_ >= 0
int_line_decision_var_2_16_ >= 0
int_line_decision_var_2_17_ >= 0
int_line_decision_var_2_18_ >= 0
int_line_decision_var_3_1_ >= 0
int_line_decision_var_3_2_ >= 0
shared_cand_flow_1,1,1_ free
shared_cand_flow_2,1,1_ free
shared_cand_flow_3,1,1_ free
shared_cand_flow_4,1,1_ free
shared_cand_flow_5,1,1_ free
shared_cand_flow_6,1,1_ free
shared_cand_flow_1,2,1_ free
shared_cand_flow_2,2,1_ free
shared_cand_flow_3,2,1_ free
shared_cand_flow_4,2,1_ free
shared_cand_flow_5,2,1_ free
shared_cand_flow_6,2,1_ free
shared_cand_flow_1,3,1_ free
shared_cand_flow_2,3,1_ free
shared_cand_flow_3,3,1_ free
shared_cand_flow_4,3,1_ free
shared_cand_flow_5,3,1_ free
shared_cand_flow_6,3,1_ free
shared_cand_flow_1,4,1_ free
shared_cand_flow_2,4,1_ free
shared_cand_flow_3,4,1_ free
shared_cand_flow_4,4,1_ free
shared_cand_flow_5,4,1_ free
shared_cand_flow_6,4,1_ free
shared_cand_flow_1,1,2_ free
shared_cand_flow_2,1,2_ free
shared_cand_flow_3,1,2_ free
shared_cand_flow_4,1,2_ free
shared_cand_flow_5,1,2_ free
shared_cand_flow_6,1,2_ free
shared_cand_flow_1,2,2_ free
shared_cand_flow_2,2,2_ free
shared_cand_flow_3,2,2_ free
shared_cand_flow_4,2,2_ free
shared_cand_flow_5,2,2_ free
shared_cand_flow_6,2,2_ free
shared_cand_flow_1,3,2_ free
shared_cand_flow_2,3,2_ free
shared_cand_flow_3,3,2_ free
shared_cand_flow_4,3,2_ free
shared_cand_flow_5,3,2_ free
shared_cand_flow_6,3,2_ free
shared_cand_flow_1,4,2_ free
shared_cand_flow_2,4,2_ free
shared_cand_flow_3,4,2_ free
shared_cand_flow_4,4,2_ free
shared_cand_flow_5,4,2_ free
shared_cand_flow_6,4,2_ free
int_cand_flow_1_1,1,1_ free
int_cand_flow_1_2,1,1_ free
int_cand_flow_1_3,1,1_ free
int_cand_flow_1_4,1,1_ free
int_cand_flow_1_5,1,1_ free
int_cand_flow_1_6,1,1_ free
int_cand_flow_1_7,1,1_ free
int_cand_flow_1_8,1,1_ free
int_cand_flow_1_9,1,1_ free
int_cand_flow_1_10,1,1_ free
int_cand_flow_1_1,2,1_ free
int_cand_flow_1_2,2,1_ free
int_cand_flow_1_3,2,1_ free
int_cand_flow_1_4,2,1_ free
int_cand_flow_1_5,2,1_ free
int_cand_flow_1_6,2,1_ free
int_cand_flow_1_7,2,1_ free
int_cand_flow_1_8,2,1_ free
int_cand_flow_1_9,2,1_ free
int_cand_flow_1_10,2,1_ free
int_cand_flow_1_1,3,1_ free
int_cand_flow_1_2,3,1_ free
int_cand_flow_1_3,3,1_ free
int_cand_flow_1_4,3,1_ free
int_cand_flow_1_5,3,1_ free
int_cand_flow_1_6,3,1_ free
int_cand_flow_1_7,3,1_ free
int_cand_flow_1_8,3,1_ free
int_cand_flow_1_9,3,1_ free
int_cand_flow_1_10,3,1_ free
int_cand_flow_1_1,4,1_ free
int_cand_flow_1_2,4,1_ free
int_cand_flow_1_3,4,1_ free
int_cand_flow_1_4,4,1_ free
int_cand_flow_1_5,4,1_ free
int_cand_flow_1_6,4,1_ free
int_cand_flow_1_7,4,1_ free
int_cand_flow_1_8,4,1_ free
int_cand_flow_1_9,4,1_ free
int_cand_flow_1_10,4,1_ free
int_cand_flow_1_1,1,2_ free
int_cand_flow_1_2,1,2_ free
int_cand_flow_1_3,1,2_ free
int_cand_flow_1_4,1,2_ free
int_cand_flow_1_5,1,2_ free
int_cand_flow_1_6,1,2_ free
int_cand_flow_1_7,1,2_ free
int_cand_flow_1_8,1,2_ free
int_cand_flow_1_9,1,2_ free
int_cand_flow_1_10,1,2_ free
int_cand_flow_1_1,2,2_ free
int_cand_flow_1_2,2,2_ free
int_cand_flow_1_3,2,2_ free
int_cand_flow_1_4,2,2_ free
int_cand_flow_1_5,2,2_ free
int_cand_flow_1_6,2,2_ free
int_cand_flow_1_7,2,2_ free
int_cand_flow_1_8,2,2_ free
int_cand_flow_1_9,2,2_ free
int_cand_flow_1_10,2,2_ free
int_cand_flow_1_1,3,2_ free
int_cand_flow_1_2,3,2_ free
int_cand_flow_1_3,3,2_ free
int_cand_flow_1_4,3,2_ free
int_cand_flow_1_5,3,2_ free
int_cand_flow_1_6,3,2_ free
int_cand_flow_1_7,3,2_ free
int_cand_flow_1_8,3,2_ free
int_cand_flow_1_9,3,2_ free
int_cand_flow_1_10,3,2_ free
int_cand_flow_1_1,4,2_ free
int_cand_flow_1_2,4,2_ free
int_cand_flow_1_3,4,2_ free
int_cand_flow_1_4,4,2_ free
int_cand_flow_1_5,4,2_ free
int_cand_flow_1_6,4,2_ free
int_cand_flow_1_7,4,2_ free
int_cand_flow_1_8,4,2_ free
int_cand_flow_1_9,4,2_ free
int_cand_flow_1_10,4,2_ free
int_cand_flow_2_1,1,1_ free
int_cand_flow_2_2,1,1_ free
int_cand_flow_2_3,1,1_ free
int_cand_flow_2_4,1,1_ free
int_cand_flow_2_5,1,1_ free
int_cand_flow_2_6,1,1_ free
int_cand_flow_2_7,1,1_ free
int_cand_flow_2_8,1,1_ free
int_cand_flow_2_9,1,1_ free
int_cand_flow_2_10,1,1_ free
int_cand_flow_2_11,1,1_ free
int_cand_flow_2_12,1,1_ free
int_cand_flow_2_13,1,1_ free
int_cand_flow_2_14,1,1_ free
int_cand_flow_2_15,1,1_ free
int_cand_flow_2_16,1,1_ free
int_cand_flow_2_17,1,1_ free
int_cand_flow_2_18,1,1_ free
int_cand_flow_2_1,2,1_ free
int_cand_flow_2_2,2,1_ free
int_cand_flow_2_3,2,1_ free
int_cand_flow_2_4,2,1_ free
int_cand_flow_2_5,2,1_ free
int_cand_flow_2_6,2,1_ free
int_cand_flow_2_7,2,1_ free
int_cand_flow_2_8,2,1_ free
int_cand_flow_2_9,2,1_ free
int_cand_flow_2_10,2,1_ free
int_cand_flow_2_11,2,1_ free
int_cand_flow_2_12,2,1_ free
int_cand_flow_2_13,2,1_ free
int_cand_flow_2_14,2,1_ free
int_cand_flow_2_15,2,1_ free
int_cand_flow_2_16,2,1_ free
int_cand_flow_2_17,2,1_ free
int_cand_flow_2_18,2,1_ free
int_cand_flow_2_1,3,1_ free
int_cand_flow_2_2,3,1_ free
int_cand_flow_2_3,3,1_ free
int_cand_flow_2_4,3,1_ free
int_cand_flow_2_5,3,1_ free
int_cand_flow_2_6,3,1_ free
int_cand_flow_2_7,3,1_ free
int_cand_flow_2_8,3,1_ free
int_cand_flow_2_9,3,1_ free
int_cand_flow_2_10,3,1_ free
int_cand_flow_2_11,3,1_ free
int_cand_flow_2_12,3,1_ free
int_cand_flow_2_13,3,1_ free
int_cand_flow_2_14,3,1_ free
int_cand_flow_2_15,3,1_ free
int_cand_flow_2_16,3,1_ free
int_cand_flow_2_17,3,1_ free
int_cand_flow_2_18,3,1_ free
int_cand_flow_2_1,4,1_ free
int_cand_flow_2_2,4,1_ free
int_cand_flow_2_3,4,1_ free
int_cand_flow_2_4,4,1_ free
int_cand_flow_2_5,4,1_ free
int_cand_flow_2_6,4,1_ free
int_cand_flow_2_7,4,1_ free
int_cand_flow_2_8,4,1_ free
int_cand_flow_2_9,4,1_ free
int_cand_flow_2_10,4,1_ free
int_cand_flow_2_11,4,1_ free
int_cand_flow_2_12,4,1_ free
int_cand_flow_2_13,4,1_ free
int_cand_flow_2_14,4,1_ free
int_cand_flow_2_15,4,1_ free
int_cand_flow_2_16,4,1_ free
int_cand_flow_2_17,4,1_ free
int_cand_flow_2_18,4,1_ free
int_cand_flow_2_1,1,2_ free
int_cand_flow_2_2,1,2_ free
int_cand_flow_2_3,1,2_ free
int_cand_flow_2_4,1,2_ free
int_cand_flow_2_5,1,2_ free
int_cand_flow_2_6,1,2_ free
int_cand_flow_2_7,1,2_ free
int_cand_flow_2_8,1,2_ free
int_cand_flow_2_9,1,2_ free
int_cand_flow_2_10,1,2_ free
int_cand_flow_2_11,1,2_ free
int_cand_flow_2_12,1,2_ free
int_cand_flow_2_13,1,2_ free
int_cand_flow_2_14,1,2_ free
int_cand_flow_2_15,1,2_ free
int_cand_flow_2_16,1,2_ free
int_cand_flow_2_17,1,2_ free
int_cand_flow_2_18,1,2_ free
int_cand_flow_2_1,2,2_ free
int_cand_flow_2_2,2,2_ free
int_cand_flow_2_3,2,2_ free
int_cand_flow_2_4,2,2_ free
int_cand_flow_2_5,2,2_ free
int_cand_flow_2_6,2,2_ free
int_cand_flow_2_7,2,2_ free
int_cand_flow_2_8,2,2_ free
int_cand_flow_2_9,2,2_ free
int_cand_flow_2_10,2,2_ free
int_cand_flow_2_11,2,2_ free
int_cand_flow_2_12,2,2_ free
int_cand_flow_2_13,2,2_ free
int_cand_flow_2_14,2,2_ free
int_cand_flow_2_15,2,2_ free
int_cand_flow_2_16,2,2_ free
int_cand_flow_2_17,2,2_ free
int_cand_flow_2_18,2,2_ free
int_cand_flow_2_1,3,2_ free
int_cand_flow_2_2,3,2_ free
int_cand_flow_2_3,3,2_ free
int_cand_flow_2_4,3,2_ free
int_cand_flow_2_5,3,2_ free
int_cand_flow_2_6,3,2_ free
int_cand_flow_2_7,3,2_ free
int_cand_flow_2_8,3,2_ free
int_cand_flow_2_9,3,2_ free
int_cand_flow_2_10,3,2_ free
int_cand_flow_2_11,3,2_ free
int_cand_flow_2_12,3,2_ free
int_cand_flow_2_13,3,2_ free
int_cand_flow_2_14,3,2_ free
int_cand_flow_2_15,3,2_ free
int_cand_flow_2_16,3,2_ free
int_cand_flow_2_17,3,2_ free
int_cand_flow_2_18,3,2_ free
int_cand_flow_2_1,4,2_ free
int_cand_flow_2_2,4,2_ free
int_cand_flow_2_3,4,2_ free
int_cand_flow_2_4,4,2_ free
int_cand_flow_2_5,4,2_ free
int_cand_flow_2_6,4,2_ free
int_cand_flow_2_7,4,2_ free
int_cand_flow_2_8,4,2_ free
int_cand_flow_2_9,4,2_ free
int_cand_flow_2_10,4,2_ free
int_cand_flow_2_11,4,2_ free
int_cand_flow_2_12,4,2_ free
int_cand_flow_2_13,4,2_ free
int_cand_flow_2_14,4,2_ free
int_cand_flow_2_15,4,2_ free
int_cand_flow_2_16,4,2_ free
int_cand_flow_2_17,4,2_ free
int_cand_flow_2_18,4,2_ free
int_cand_flow_3_1,1,1_ free
int_cand_flow_3_2,1,1_ free
int_cand_flow_3_1,2,1_ free
int_cand_flow_3_2,2,1_ free
int_cand_flow_3_1,3,1_ free
int_cand_flow_3_2,3,1_ free
int_cand_flow_3_1,4,1_ free
int_cand_flow_3_2,4,1_ free
int_cand_flow_3_1,1,2_ free
int_cand_flow_3_2,1,2_ free
int_cand_flow_3_1,2,2_ free
int_cand_flow_3_2,2,2_ free
int_cand_flow_3_1,3,2_ free
int_cand_flow_3_2,3,2_ free
int_cand_flow_3_1,4,2_ free
int_cand_flow_3_2,4,2_ free
0 <= node_voltage_phase_angle_1,1,1,1_ <= 6.283185307179586
0 <= node_voltage_phase_angle_1,1,1,2_ <= 6.283185307179586
0 <= node_voltage_phase_angle_1,1,2,1_ <= 6.283185307179586
0 <= node_voltage_phase_angle_1,1,2,2_ <= 6.283185307179586
0 <= node_voltage_phase_angle_1,1,3,1_ <= 6.283185307179586
0 <= node_voltage_phase_angle_1,1,3,2_ <= 6.283185307179586
0 <= node_voltage_phase_angle_1,1,4,1_ <= 6.283185307179586
0 <= node_voltage_phase_angle_1,1,4,2_ <= 6.283185307179586
0 <= node_voltage_phase_angle_1,2,1,1_ <= 6.283185307179586
0 <= node_voltage_phase_angle_1,2,1,2_ <= 6.283185307179586
0 <= node_voltage_phase_angle_1,2,2,1_ <= 6.283185307179586
0 <= node_voltage_phase_angle_1,2,2,2_ <= 6.283185307179586
0 <= node_voltage_phase_angle_1,2,3,1_ <= 6.283185307179586
0 <= node_voltage_phase_angle_1,2,3,2_ <= 6.283185307179586
0 <= node_voltage_phase_angle_1,2,4,1_ <= 6.283185307179586
0 <= node_voltage_phase_angle_1,2,4,2_ <= 6.283185307179586
0 <= node_voltage_phase_angle_1,3,1,1_ <= 6.283185307179586
0 <= node_voltage_phase_angle_1,3,1,2_ <= 6.283185307179586
0 <= node_voltage_phase_angle_1,3,2,1_ <= 6.283185307179586
0 <= node_voltage_phase_angle_1,3,2,2_ <= 6.283185307179586
0 <= node_voltage_phase_angle_1,3,3,1_ <= 6.283185307179586
0 <= node_voltage_phase_angle_1,3,3,2_ <= 6.283185307179586
0 <= node_voltage_phase_angle_1,3,4,1_ <= 6.283185307179586
0 <= node_voltage_phase_angle_1,3,4,2_ <= 6.283185307179586
0 <= node_voltage_phase_angle_1,4,1,1_ <= 6.283185307179586
0 <= node_voltage_phase_angle_1,4,1,2_ <= 6.283185307179586
0 <= node_voltage_phase_angle_1,4,2,1_ <= 6.283185307179586
0 <= node_voltage_phase_angle_1,4,2,2_ <= 6.283185307179586
0 <= node_voltage_phase_angle_1,4,3,1_ <= 6.283185307179586
0 <= node_voltage_phase_angle_1,4,3,2_ <= 6.283185307179586
0 <= node_voltage_phase_angle_1,4,4,1_ <= 6.283185307179586
0 <= node_voltage_phase_angle_1,4,4,2_ <= 6.283185307179586
0 <= node_voltage_phase_angle_1,5,1,1_ <= 6.283185307179586
0 <= node_voltage_phase_angle_1,5,1,2_ <= 6.283185307179586
0 <= node_voltage_phase_angle_1,5,2,1_ <= 6.283185307179586
0 <= node_voltage_phase_angle_1,5,2,2_ <= 6.283185307179586
0 <= node_voltage_phase_angle_1,5,3,1_ <= 6.283185307179586
0 <= node_voltage_phase_angle_1,5,3,2_ <= 6.283185307179586
0 <= node_voltage_phase_angle_1,5,4,1_ <= 6.283185307179586
0 <= node_voltage_phase_angle_1,5,4,2_ <= 6.283185307179586
0 <= node_voltage_phase_angle_1,6,1,1_ <= 6.283185307179586
0 <= node_voltage_phase_angle_1,6,1,2_ <= 6.283185307179586
0 <= node_voltage_phase_angle_1,6,2,1_ <= 6.283185307179586
0 <= node_voltage_phase_angle_1,6,2,2_ <= 6.283185307179586
0 <= node_voltage_phase_angle_1,6,3,1_ <= 6.283185307179586
0 <= node_voltage_phase_angle_1,6,3,2_ <= 6.283185307179586
0 <= node_voltage_phase_angle_1,6,4,1_ <= 6.283185307179586
0 <= node_voltage_phase_angle_1,6,4,2_ <= 6.283185307179586
0 <= node_voltage_phase_angle_1,7,1,1_ <= 6.283185307179586
0 <= node_voltage_phase_angle_1,7,1,2_ <= 6.283185307179586
0 <= node_voltage_phase_angle_1,7,2,1_ <= 6.283185307179586
0 <= node_voltage_phase_angle_1,7,2,2_ <= 6.283185307179586
0 <= node_voltage_phase_angle_1,7,3,1_ <= 6.283185307179586
0 <= node_voltage_phase_angle_1,7,3,2_ <= 6.283185307179586
0 <= node_voltage_phase_angle_1,7,4,1_ <= 6.283185307179586
0 <= node_voltage_phase_angle_1,7,4,2_ <= 6.283185307179586
0 <= node_voltage_phase_angle_1,8,1,1_ <= 6.283185307179586
0 <= node_voltage_phase_angle_1,8,1,2_ <= 6.283185307179586
0 <= node_voltage_phase_angle_1,8,2,1_ <= 6.283185307179586
0 <= node_voltage_phase_angle_1,8,2,2_ <= 6.283185307179586
0 <= node_voltage_phase_angle_1,8,3,1_ <= 6.283185307179586
0 <= node_voltage_phase_angle_1,8,3,2_ <= 6.283185307179586
0 <= node_voltage_phase_angle_1,8,4,1_ <= 6.283185307179586
0 <= node_voltage_phase_angle_1,8,4,2_ <= 6.283185307179586
0 <= node_voltage_phase_angle_1,9,1,1_ <= 6.283185307179586
0 <= node_voltage_phase_angle_1,9,1,2_ <= 6.283185307179586
0 <= node_voltage_phase_angle_1,9,2,1_ <= 6.283185307179586
0 <= node_voltage_phase_angle_1,9,2,2_ <= 6.283185307179586
0 <= node_voltage_phase_angle_1,9,3,1_ <= 6.283185307179586
0 <= node_voltage_phase_angle_1,9,3,2_ <= 6.283185307179586
0 <= node_voltage_phase_angle_1,9,4,1_ <= 6.283185307179586
0 <= node_voltage_phase_angle_1,9,4,2_ <= 6.283185307179586
0 <= node_voltage_phase_angle_1,10,1,1_ <= 6.283185307179586
0 <= node_voltage_phase_angle_1,10,1,2_ <= 6.283185307179586
0 <= node_voltage_phase_angle_1,10,2,1_ <= 6.283185307179586
0 <= node_voltage_phase_angle_1,10,2,2_ <= 6.283185307179586
0 <= node_voltage_phase_angle_1,10,3,1_ <= 6.283185307179586
0 <= node_voltage_phase_angle_1,10,3,2_ <= 6.283185307179586
0 <= node_voltage_phase_angle_1,10,4,1_ <= 6.283185307179586
0 <= node_voltage_phase_angle_1,10,4,2_ <= 6.283185307179586
0 <= node_voltage_phase_angle_1,11,1,1_ <= 6.283185307179586
0 <= node_voltage_phase_angle_1,11,1,2_ <= 6.283185307179586
0 <= node_voltage_phase_angle_1,11,2,1_ <= 6.283185307179586
0 <= node_voltage_phase_angle_1,11,2,2_ <= 6.283185307179586
0 <= node_voltage_phase_angle_1,11,3,1_ <= 6.283185307179586
0 <= node_voltage_phase_angle_1,11,3,2_ <= 6.283185307179586
0 <= node_voltage_phase_angle_1,11,4,1_ <= 6.283185307179586
0 <= node_voltage_phase_angle_1,11,4,2_ <= 6.283185307179586
0 <= node_voltage_phase_angle_1,12,1,1_ <= 6.283185307179586
0 <= node_voltage_phase_angle_1,12,1,2_ <= 6.283185307179586
0 <= node_voltage_phase_angle_1,12,2,1_ <= 6.283185307179586
0 <= node_voltage_phase_angle_1,12,2,2_ <= 6.283185307179586
0 <= node_voltage_phase_angle_1,12,3,1_ <= 6.283185307179586
0 <= node_voltage_phase_angle_1,12,3,2_ <= 6.283185307179586
0 <= node_voltage_phase_angle_1,12,4,1_ <= 6.283185307179586
0 <= node_voltage_phase_angle_1,12,4,2_ <= 6.283185307179586
0 <= node_voltage_phase_angle_1,13,1,1_ <= 6.283185307179586
0 <= node_voltage_phase_angle_1,13,1,2_ <= 6.283185307179586
0 <= node_voltage_phase_angle_1,13,2,1_ <= 6.283185307179586
0 <= node_voltage_phase_angle_1,13,2,2_ <= 6.283185307179586
0 <= node_voltage_phase_angle_1,13,3,1_ <= 6.283185307179586
0 <= node_voltage_phase_angle_1,13,3,2_ <= 6.283185307179586
0 <= node_voltage_phase_angle_1,13,4,1_ <= 6.283185307179586
0 <= node_voltage_phase_angle_1,13,4,2_ <= 6.283185307179586
0 <= node_voltage_phase_angle_1,14,1,1_ <= 6.283185307179586
0 <= node_voltage_phase_angle_1,14,1,2_ <= 6.283185307179586
0 <= node_voltage_phase_angle_1,14,2,1_ <= 6.283185307179586
0 <= node_voltage_phase_angle_1,14,2,2_ <= 6.283185307179586
0 <= node_voltage_phase_angle_1,14,3,1_ <= 6.283185307179586
0 <= node_voltage_phase_angle_1,14,3,2_ <= 6.283185307179586
0 <= node_voltage_phase_angle_1,14,4,1_ <= 6.283185307179586
0 <= node_voltage_phase_angle_1,14,4,2_ <= 6.283185307179586
0 <= node_voltage_phase_angle_2,1,1,1_ <= 6.283185307179586
0 <= node_voltage_phase_angle_2,1,1,2_ <= 6.283185307179586
0 <= node_voltage_phase_angle_2,1,2,1_ <= 6.283185307179586
0 <= node_voltage_phase_angle_2,1,2,2_ <= 6.283185307179586
0 <= node_voltage_phase_angle_2,1,3,1_ <= 6.283185307179586
0 <= node_voltage_phase_angle_2,1,3,2_ <= 6.283185307179586
0 <= node_voltage_phase_angle_2,1,4,1_ <= 6.283185307179586
0 <= node_voltage_phase_angle_2,1,4,2_ <= 6.283185307179586
0 <= node_voltage_phase_angle_2,2,1,1_ <= 6.283185307179586
0 <= node_voltage_phase_angle_2,2,1,2_ <= 6.283185307179586
0 <= node_voltage_phase_angle_2,2,2,1_ <= 6.283185307179586
0 <= node_voltage_phase_angle_2,2,2,2_ <= 6.283185307179586
0 <= node_voltage_phase_angle_2,2,3,1_ <= 6.283185307179586
0 <= node_voltage_phase_angle_2,2,3,2_ <= 6.283185307179586
0 <= node_voltage_phase_angle_2,2,4,1_ <= 6.283185307179586
0 <= node_voltage_phase_angle_2,2,4,2_ <= 6.283185307179586
0 <= node_voltage_phase_angle_2,3,1,1_ <= 6.283185307179586
0 <= node_voltage_phase_angle_2,3,1,2_ <= 6.283185307179586
0 <= node_voltage_phase_angle_2,3,2,1_ <= 6.283185307179586
0 <= node_voltage_phase_angle_2,3,2,2_ <= 6.283185307179586
0 <= node_voltage_phase_angle_2,3,3,1_ <= 6.283185307179586
0 <= node_voltage_phase_angle_2,3,3,2_ <= 6.283185307179586
0 <= node_voltage_phase_angle_2,3,4,1_ <= 6.283185307179586
0 <= node_voltage_phase_angle_2,3,4,2_ <= 6.283185307179586
0 <= node_voltage_phase_angle_2,4,1,1_ <= 6.283185307179586
0 <= node_voltage_phase_angle_2,4,1,2_ <= 6.283185307179586
0 <= node_voltage_phase_angle_2,4,2,1_ <= 6.283185307179586
0 <= node_voltage_phase_angle_2,4,2,2_ <= 6.283185307179586
0 <= node_voltage_phase_angle_2,4,3,1_ <= 6.283185307179586
0 <= node_voltage_phase_angle_2,4,3,2_ <= 6.283185307179586
0 <= node_voltage_phase_angle_2,4,4,1_ <= 6.283185307179586
0 <= node_voltage_phase_angle_2,4,4,2_ <= 6.283185307179586
0 <= node_voltage_phase_angle_2,5,1,1_ <= 6.283185307179586
0 <= node_voltage_phase_angle_2,5,1,2_ <= 6.283185307179586
0 <= node_voltage_phase_angle_2,5,2,1_ <= 6.283185307179586
0 <= node_voltage_phase_angle_2,5,2,2_ <= 6.283185307179586
0 <= node_voltage_phase_angle_2,5,3,1_ <= 6.283185307179586
0 <= node_voltage_phase_angle_2,5,3,2_ <= 6.283185307179586
0 <= node_voltage_phase_angle_2,5,4,1_ <= 6.283185307179586
0 <= node_voltage_phase_angle_2,5,4,2_ <= 6.283185307179586
0 <= node_voltage_phase_angle_2,6,1,1_ <= 6.283185307179586
0 <= node_voltage_phase_angle_2,6,1,2_ <= 6.283185307179586
0 <= node_voltage_phase_angle_2,6,2,1_ <= 6.283185307179586
0 <= node_voltage_phase_angle_2,6,2,2_ <= 6.283185307179586
0 <= node_voltage_phase_angle_2,6,3,1_ <= 6.283185307179586
0 <= node_voltage_phase_angle_2,6,3,2_ <= 6.283185307179586
0 <= node_voltage_phase_angle_2,6,4,1_ <= 6.283185307179586
0 <= node_voltage_phase_angle_2,6,4,2_ <= 6.283185307179586
0 <= node_voltage_phase_angle_2,7,1,1_ <= 6.283185307179586
0 <= node_voltage_phase_angle_2,7,1,2_ <= 6.283185307179586
0 <= node_voltage_phase_angle_2,7,2,1_ <= 6.283185307179586
0 <= node_voltage_phase_angle_2,7,2,2_ <= 6.283185307179586
0 <= node_voltage_phase_angle_2,7,3,1_ <= 6.283185307179586
0 <= node_voltage_phase_angle_2,7,3,2_ <= 6.283185307179586
0 <= node_voltage_phase_angle_2,7,4,1_ <= 6.283185307179586
0 <= node_voltage_phase_angle_2,7,4,2_ <= 6.283185307179586
0 <= node_voltage_phase_angle_2,8,1,1_ <= 6.283185307179586
0 <= node_voltage_phase_angle_2,8,1,2_ <= 6.283185307179586
0 <= node_voltage_phase_angle_2,8,2,1_ <= 6.283185307179586
0 <= node_voltage_phase_angle_2,8,2,2_ <= 6.283185307179586
0 <= node_voltage_phase_angle_2,8,3,1_ <= 6.283185307179586
0 <= node_voltage_phase_angle_2,8,3,2_ <= 6.283185307179586
0 <= node_voltage_phase_angle_2,8,4,1_ <= 6.283185307179586
0 <= node_voltage_phase_angle_2,8,4,2_ <= 6.283185307179586
0 <= node_voltage_phase_angle_2,9,1,1_ <= 6.283185307179586
0 <= node_voltage_phase_angle_2,9,1,2_ <= 6.283185307179586
0 <= node_voltage_phase_angle_2,9,2,1_ <= 6.283185307179586
0 <= node_voltage_phase_angle_2,9,2,2_ <= 6.283185307179586
0 <= node_voltage_phase_angle_2,9,3,1_ <= 6.283185307179586
0 <= node_voltage_phase_angle_2,9,3,2_ <= 6.283185307179586
0 <= node_voltage_phase_angle_2,9,4,1_ <= 6.283185307179586
0 <= node_voltage_phase_angle_2,9,4,2_ <= 6.283185307179586
0 <= node_voltage_phase_angle_2,10,1,1_ <= 6.283185307179586
0 <= node_voltage_phase_angle_2,10,1,2_ <= 6.283185307179586
0 <= node_voltage_phase_angle_2,10,2,1_ <= 6.283185307179586
0 <= node_voltage_phase_angle_2,10,2,2_ <= 6.283185307179586
0 <= node_voltage_phase_angle_2,10,3,1_ <= 6.283185307179586
0 <= node_voltage_phase_angle_2,10,3,2_ <= 6.283185307179586
0 <= node_voltage_phase_angle_2,10,4,1_ <= 6.283185307179586
0 <= node_voltage_phase_angle_2,10,4,2_ <= 6.283185307179586
0 <= node_voltage_phase_angle_2,11,1,1_ <= 6.283185307179586
0 <= node_voltage_phase_angle_2,11,1,2_ <= 6.283185307179586
0 <= node_voltage_phase_angle_2,11,2,1_ <= 6.283185307179586
0 <= node_voltage_phase_angle_2,11,2,2_ <= 6.283185307179586
0 <= node_voltage_phase_angle_2,11,3,1_ <= 6.283185307179586
0 <= node_voltage_phase_angle_2,11,3,2_ <= 6.283185307179586
0 <= node_voltage_phase_angle_2,11,4,1_ <= 6.283185307179586
0 <= node_voltage_phase_angle_2,11,4,2_ <= 6.283185307179586
0 <= node_voltage_phase_angle_2,12,1,1_ <= 6.283185307179586
0 <= node_voltage_phase_angle_2,12,1,2_ <= 6.283185307179586
0 <= node_voltage_phase_angle_2,12,2,1_ <= 6.283185307179586
0 <= node_voltage_phase_angle_2,12,2,2_ <= 6.283185307179586
0 <= node_voltage_phase_angle_2,12,3,1_ <= 6.283185307179586
0 <= node_voltage_phase_angle_2,12,3,2_ <= 6.283185307179586
0 <= node_voltage_phase_angle_2,12,4,1_ <= 6.283185307179586
0 <= node_voltage_phase_angle_2,12,4,2_ <= 6.283185307179586
0 <= node_voltage_phase_angle_2,13,1,1_ <= 6.283185307179586
0 <= node_voltage_phase_angle_2,13,1,2_ <= 6.283185307179586
0 <= node_voltage_phase_angle_2,13,2,1_ <= 6.283185307179586
0 <= node_voltage_phase_angle_2,13,2,2_ <= 6.283185307179586
0 <= node_voltage_phase_angle_2,13,3,1_ <= 6.283185307179586
0 <= node_voltage_phase_angle_2,13,3,2_ <= 6.283185307179586
0 <= node_voltage_phase_angle_2,13,4,1_ <= 6.283185307179586
0 <= node_voltage_phase_angle_2,13,4,2_ <= 6.283185307179586
0 <= node_voltage_phase_angle_2,14,1,1_ <= 6.283185307179586
0 <= node_voltage_phase_angle_2,14,1,2_ <= 6.283185307179586
0 <= node_voltage_phase_angle_2,14,2,1_ <= 6.283185307179586
0 <= node_voltage_phase_angle_2,14,2,2_ <= 6.283185307179586
0 <= node_voltage_phase_angle_2,14,3,1_ <= 6.283185307179586
0 <= node_voltage_phase_angle_2,14,3,2_ <= 6.283185307179586
0 <= node_voltage_phase_angle_2,14,4,1_ <= 6.283185307179586
0 <= node_voltage_phase_angle_2,14,4,2_ <= 6.283185307179586
0 <= node_voltage_phase_angle_2,15,1,1_ <= 6.283185307179586
0 <= node_voltage_phase_angle_2,15,1,2_ <= 6.283185307179586
0 <= node_voltage_phase_angle_2,15,2,1_ <= 6.283185307179586
0 <= node_voltage_phase_angle_2,15,2,2_ <= 6.283185307179586
0 <= node_voltage_phase_angle_2,15,3,1_ <= 6.283185307179586
0 <= node_voltage_phase_angle_2,15,3,2_ <= 6.283185307179586
0 <= node_voltage_phase_angle_2,15,4,1_ <= 6.283185307179586
0 <= node_voltage_phase_angle_2,15,4,2_ <= 6.283185307179586
0 <= node_voltage_phase_angle_2,16,1,1_ <= 6.283185307179586
0 <= node_voltage_phase_angle_2,16,1,2_ <= 6.283185307179586
0 <= node_voltage_phase_angle_2,16,2,1_ <= 6.283185307179586
0 <= node_voltage_phase_angle_2,16,2,2_ <= 6.283185307179586
0 <= node_voltage_phase_angle_2,16,3,1_ <= 6.283185307179586
0 <= node_voltage_phase_angle_2,16,3,2_ <= 6.283185307179586
0 <= node_voltage_phase_angle_2,16,4,1_ <= 6.283185307179586
0 <= node_voltage_phase_angle_2,16,4,2_ <= 6.283185307179586
0 <= node_voltage_phase_angle_2,17,1,1_ <= 6.283185307179586
0 <= node_voltage_phase_angle_2,17,1,2_ <= 6.283185307179586
0 <= node_voltage_phase_angle_2,17,2,1_ <= 6.283185307179586
0 <= node_voltage_phase_angle_2,17,2,2_ <= 6.283185307179586
0 <= node_voltage_phase_angle_2,17,3,1_ <= 6.283185307179586
0 <= node_voltage_phase_angle_2,17,3,2_ <= 6.283185307179586
0 <= node_voltage_phase_angle_2,17,4,1_ <= 6.283185307179586
0 <= node_voltage_phase_angle_2,17,4,2_ <= 6.283185307179586
0 <= node_voltage_phase_angle_2,18,1,1_ <= 6.283185307179586
0 <= node_voltage_phase_angle_2,18,1,2_ <= 6.283185307179586
0 <= node_voltage_phase_angle_2,18,2,1_ <= 6.283185307179586
0 <= node_voltage_phase_angle_2,18,2,2_ <= 6.283185307179586
0 <= node_voltage_phase_angle_2,18,3,1_ <= 6.283185307179586
0 <= node_voltage_phase_angle_2,18,3,2_ <= 6.283185307179586
0 <= node_voltage_phase_angle_2,18,4,1_ <= 6.283185307179586
0 <= node_voltage_phase_angle_2,18,4,2_ <= 6.283185307179586
0 <= node_voltage_phase_angle_2,19,1,1_ <= 6.283185307179586
0 <= node_voltage_phase_angle_2,19,1,2_ <= 6.283185307179586
0 <= node_voltage_phase_angle_2,19,2,1_ <= 6.283185307179586
0 <= node_voltage_phase_angle_2,19,2,2_ <= 6.283185307179586
0 <= node_voltage_phase_angle_2,19,3,1_ <= 6.283185307179586
0 <= node_voltage_phase_angle_2,19,3,2_ <= 6.283185307179586
0 <= node_voltage_phase_angle_2,19,4,1_ <= 6.283185307179586
0 <= node_voltage_phase_angle_2,19,4,2_ <= 6.283185307179586
0 <= node_voltage_phase_angle_2,20,1,1_ <= 6.283185307179586
0 <= node_voltage_phase_angle_2,20,1,2_ <= 6.283185307179586
0 <= node_voltage_phase_angle_2,20,2,1_ <= 6.283185307179586
0 <= node_voltage_phase_angle_2,20,2,2_ <= 6.283185307179586
0 <= node_voltage_phase_angle_2,20,3,1_ <= 6.283185307179586
0 <= node_voltage_phase_angle_2,20,3,2_ <= 6.283185307179586
0 <= node_voltage_phase_angle_2,20,4,1_ <= 6.283185307179586
0 <= node_voltage_phase_angle_2,20,4,2_ <= 6.283185307179586
0 <= node_voltage_phase_angle_2,21,1,1_ <= 6.283185307179586
0 <= node_voltage_phase_angle_2,21,1,2_ <= 6.283185307179586
0 <= node_voltage_phase_angle_2,21,2,1_ <= 6.283185307179586
0 <= node_voltage_phase_angle_2,21,2,2_ <= 6.283185307179586
0 <= node_voltage_phase_angle_2,21,3,1_ <= 6.283185307179586
0 <= node_voltage_phase_angle_2,21,3,2_ <= 6.283185307179586
0 <= node_voltage_phase_angle_2,21,4,1_ <= 6.283185307179586
0 <= node_voltage_phase_angle_2,21,4,2_ <= 6.283185307179586
0 <= node_voltage_phase_angle_2,22,1,1_ <= 6.283185307179586
0 <= node_voltage_phase_angle_2,22,1,2_ <= 6.283185307179586
0 <= node_voltage_phase_angle_2,22,2,1_ <= 6.283185307179586
0 <= node_voltage_phase_angle_2,22,2,2_ <= 6.283185307179586
0 <= node_voltage_phase_angle_2,22,3,1_ <= 6.283185307179586
0 <= node_voltage_phase_angle_2,22,3,2_ <= 6.283185307179586
0 <= node_voltage_phase_angle_2,22,4,1_ <= 6.283185307179586
0 <= node_voltage_phase_angle_2,22,4,2_ <= 6.283185307179586
0 <= node_voltage_phase_angle_2,23,1,1_ <= 6.283185307179586
0 <= node_voltage_phase_angle_2,23,1,2_ <= 6.283185307179586
0 <= node_voltage_phase_angle_2,23,2,1_ <= 6.283185307179586
0 <= node_voltage_phase_angle_2,23,2,2_ <= 6.283185307179586
0 <= node_voltage_phase_angle_2,23,3,1_ <= 6.283185307179586
0 <= node_voltage_phase_angle_2,23,3,2_ <= 6.283185307179586
0 <= node_voltage_phase_angle_2,23,4,1_ <= 6.283185307179586
0 <= node_voltage_phase_angle_2,23,4,2_ <= 6.283185307179586
0 <= node_voltage_phase_angle_2,24,1,1_ <= 6.283185307179586
0 <= node_voltage_phase_angle_2,24,1,2_ <= 6.283185307179586
0 <= node_voltage_phase_angle_2,24,2,1_ <= 6.283185307179586
0 <= node_voltage_phase_angle_2,24,2,2_ <= 6.283185307179586
0 <= node_voltage_phase_angle_2,24,3,1_ <= 6.283185307179586
0 <= node_voltage_phase_angle_2,24,3,2_ <= 6.283185307179586
0 <= node_voltage_phase_angle_2,24,4,1_ <= 6.283185307179586
0 <= node_voltage_phase_angle_2,24,4,2_ <= 6.283185307179586
0 <= node_voltage_phase_angle_2,25,1,1_ <= 6.283185307179586
0 <= node_voltage_phase_angle_2,25,1,2_ <= 6.283185307179586
0 <= node_voltage_phase_angle_2,25,2,1_ <= 6.283185307179586
0 <= node_voltage_phase_angle_2,25,2,2_ <= 6.283185307179586
0 <= node_voltage_phase_angle_2,25,3,1_ <= 6.283185307179586
0 <= node_voltage_phase_angle_2,25,3,2_ <= 6.283185307179586
0 <= node_voltage_phase_angle_2,25,4,1_ <= 6.283185307179586
0 <= node_voltage_phase_angle_2,25,4,2_ <= 6.283185307179586
0 <= node_voltage_phase_angle_2,26,1,1_ <= 6.283185307179586
0 <= node_voltage_phase_angle_2,26,1,2_ <= 6.283185307179586
0 <= node_voltage_phase_angle_2,26,2,1_ <= 6.283185307179586
0 <= node_voltage_phase_angle_2,26,2,2_ <= 6.283185307179586
0 <= node_voltage_phase_angle_2,26,3,1_ <= 6.283185307179586
0 <= node_voltage_phase_angle_2,26,3,2_ <= 6.283185307179586
0 <= node_voltage_phase_angle_2,26,4,1_ <= 6.283185307179586
0 <= node_voltage_phase_angle_2,26,4,2_ <= 6.283185307179586
0 <= node_voltage_phase_angle_2,27,1,1_ <= 6.283185307179586
0 <= node_voltage_phase_angle_2,27,1,2_ <= 6.283185307179586
0 <= node_voltage_phase_angle_2,27,2,1_ <= 6.283185307179586
0 <= node_voltage_phase_angle_2,27,2,2_ <= 6.283185307179586
0 <= node_voltage_phase_angle_2,27,3,1_ <= 6.283185307179586
0 <= node_voltage_phase_angle_2,27,3,2_ <= 6.283185307179586
0 <= node_voltage_phase_angle_2,27,4,1_ <= 6.283185307179586
0 <= node_voltage_phase_angle_2,27,4,2_ <= 6.283185307179586
0 <= node_voltage_phase_angle_2,28,1,1_ <= 6.283185307179586
0 <= node_voltage_phase_angle_2,28,1,2_ <= 6.283185307179586
0 <= node_voltage_phase_angle_2,28,2,1_ <= 6.283185307179586
0 <= node_voltage_phase_angle_2,28,2,2_ <= 6.283185307179586
0 <= node_voltage_phase_angle_2,28,3,1_ <= 6.283185307179586
0 <= node_voltage_phase_angle_2,28,3,2_ <= 6.283185307179586
0 <= node_voltage_phase_angle_2,28,4,1_ <= 6.283185307179586
0 <= node_voltage_phase_angle_2,28,4,2_ <= 6.283185307179586
0 <= node_voltage_phase_angle_2,29,1,1_ <= 6.283185307179586
0 <= node_voltage_phase_angle_2,29,1,2_ <= 6.283185307179586
0 <= node_voltage_phase_angle_2,29,2,1_ <= 6.283185307179586
0 <= node_voltage_phase_angle_2,29,2,2_ <= 6.283185307179586
0 <= node_voltage_phase_angle_2,29,3,1_ <= 6.283185307179586
0 <= node_voltage_phase_angle_2,29,3,2_ <= 6.283185307179586
0 <= node_voltage_phase_angle_2,29,4,1_ <= 6.283185307179586
0 <= node_voltage_phase_angle_2,29,4,2_ <= 6.283185307179586
0 <= node_voltage_phase_angle_2,30,1,1_ <= 6.283185307179586
0 <= node_voltage_phase_angle_2,30,1,2_ <= 6.283185307179586
0 <= node_voltage_phase_angle_2,30,2,1_ <= 6.283185307179586
0 <= node_voltage_phase_angle_2,30,2,2_ <= 6.283185307179586
0 <= node_voltage_phase_angle_2,30,3,1_ <= 6.283185307179586
0 <= node_voltage_phase_angle_2,30,3,2_ <= 6.283185307179586
0 <= node_voltage_phase_angle_2,30,4,1_ <= 6.283185307179586
0 <= node_voltage_phase_angle_2,30,4,2_ <= 6.283185307179586
0 <= node_voltage_phase_angle_3,1,1,1_ <= 6.283185307179586
0 <= node_voltage_phase_angle_3,1,1,2_ <= 6.283185307179586
0 <= node_voltage_phase_angle_3,1,2,1_ <= 6.283185307179586
0 <= node_voltage_phase_angle_3,1,2,2_ <= 6.283185307179586
0 <= node_voltage_phase_angle_3,1,3,1_ <= 6.283185307179586
0 <= node_voltage_phase_angle_3,1,3,2_ <= 6.283185307179586
0 <= node_voltage_phase_angle_3,1,4,1_ <= 6.283185307179586
0 <= node_voltage_phase_angle_3,1,4,2_ <= 6.283185307179586
0 <= node_voltage_phase_angle_3,2,1,1_ <= 6.283185307179586
0 <= node_voltage_phase_angle_3,2,1,2_ <= 6.283185307179586
0 <= node_voltage_phase_angle_3,2,2,1_ <= 6.283185307179586
0 <= node_voltage_phase_angle_3,2,2,2_ <= 6.283185307179586
0 <= node_voltage_phase_angle_3,2,3,1_ <= 6.283185307179586
0 <= node_voltage_phase_angle_3,2,3,2_ <= 6.283185307179586
0 <= node_voltage_phase_angle_3,2,4,1_ <= 6.283185307179586
0 <= node_voltage_phase_angle_3,2,4,2_ <= 6.283185307179586
0 <= node_voltage_phase_angle_3,3,1,1_ <= 6.283185307179586
0 <= node_voltage_phase_angle_3,3,1,2_ <= 6.283185307179586
0 <= node_voltage_phase_angle_3,3,2,1_ <= 6.283185307179586
0 <= node_voltage_phase_angle_3,3,2,2_ <= 6.283185307179586
0 <= node_voltage_phase_angle_3,3,3,1_ <= 6.283185307179586
0 <= node_voltage_phase_angle_3,3,3,2_ <= 6.283185307179586
0 <= node_voltage_phase_angle_3,3,4,1_ <= 6.283185307179586
0 <= node_voltage_phase_angle_3,3,4,2_ <= 6.283185307179586
0 <= node_voltage_phase_angle_3,4,1,1_ <= 6.283185307179586
0 <= node_voltage_phase_angle_3,4,1,2_ <= 6.283185307179586
0 <= node_voltage_phase_angle_3,4,2,1_ <= 6.283185307179586
0 <= node_voltage_phase_angle_3,4,2,2_ <= 6.283185307179586
0 <= node_voltage_phase_angle_3,4,3,1_ <= 6.283185307179586
0 <= node_voltage_phase_angle_3,4,3,2_ <= 6.283185307179586
0 <= node_voltage_phase_angle_3,4,4,1_ <= 6.283185307179586
0 <= node_voltage_phase_angle_3,4,4,2_ <= 6.283185307179586
0 <= node_voltage_phase_angle_3,5,1,1_ <= 6.283185307179586
0 <= node_voltage_phase_angle_3,5,1,2_ <= 6.283185307179586
0 <= node_voltage_phase_angle_3,5,2,1_ <= 6.283185307179586
0 <= node_voltage_phase_angle_3,5,2,2_ <= 6.283185307179586
0 <= node_voltage_phase_angle_3,5,3,1_ <= 6.283185307179586
0 <= node_voltage_phase_angle_3,5,3,2_ <= 6.283185307179586
0 <= node_voltage_phase_angle_3,5,4,1_ <= 6.283185307179586
0 <= node_voltage_phase_angle_3,5,4,2_ <= 6.283185307179586
shared_ex_flow_1,1,1_ free
shared_ex_flow_2,1,1_ free
shared_ex_flow_3,1,1_ free
shared_ex_flow_4,1,1_ free
shared_ex_flow_5,1,1_ free
shared_ex_flow_6,1,1_ free
shared_ex_flow_7,1,1_ free
shared_ex_flow_8,1,1_ free
shared_ex_flow_1,2,1_ free
shared_ex_flow_2,2,1_ free
shared_ex_flow_3,2,1_ free
shared_ex_flow_4,2,1_ free
shared_ex_flow_5,2,1_ free
shared_ex_flow_6,2,1_ free
shared_ex_flow_7,2,1_ free
shared_ex_flow_8,2,1_ free
shared_ex_flow_1,3,1_ free
shared_ex_flow_2,3,1_ free
shared_ex_flow_3,3,1_ free
shared_ex_flow_4,3,1_ free
shared_ex_flow_5,3,1_ free
shared_ex_flow_6,3,1_ free
shared_ex_flow_7,3,1_ free
shared_ex_flow_8,3,1_ free
shared_ex_flow_1,4,1_ free
shared_ex_flow_2,4,1_ free
shared_ex_flow_3,4,1_ free
shared_ex_flow_4,4,1_ free
shared_ex_flow_5,4,1_ free
shared_ex_flow_6,4,1_ free
shared_ex_flow_7,4,1_ free
shared_ex_flow_8,4,1_ free
shared_ex_flow_1,1,2_ free
shared_ex_flow_2,1,2_ free
shared_ex_flow_3,1,2_ free
shared_ex_flow_4,1,2_ free
shared_ex_flow_5,1,2_ free
shared_ex_flow_6,1,2_ free
shared_ex_flow_7,1,2_ free
shared_ex_flow_8,1,2_ free
shared_ex_flow_1,2,2_ free
shared_ex_flow_2,2,2_ free
shared_ex_flow_3,2,2_ free
shared_ex_flow_4,2,2_ free
shared_ex_flow_5,2,2_ free
shared_ex_flow_6,2,2_ free
shared_ex_flow_7,2,2_ free
shared_ex_flow_8,2,2_ free
shared_ex_flow_1,3,2_ free
shared_ex_flow_2,3,2_ free
shared_ex_flow_3,3,2_ free
shared_ex_flow_4,3,2_ free
shared_ex_flow_5,3,2_ free
shared_ex_flow_6,3,2_ free
shared_ex_flow_7,3,2_ free
shared_ex_flow_8,3,2_ free
shared_ex_flow_1,4,2_ free
shared_ex_flow_2,4,2_ free
shared_ex_flow_3,4,2_ free
shared_ex_flow_4,4,2_ free
shared_ex_flow_5,4,2_ free
shared_ex_flow_6,4,2_ free
shared_ex_flow_7,4,2_ free
shared_ex_flow_8,4,2_ free
int_ex_flow_1_1,1,1_ free
int_ex_flow_1_2,1,1_ free
int_ex_flow_1_3,1,1_ free
int_ex_flow_1_4,1,1_ free
int_ex_flow_1_5,1,1_ free
int_ex_flow_1_6,1,1_ free
int_ex_flow_1_7,1,1_ free
int_ex_flow_1_8,1,1_ free
int_ex_flow_1_9,1,1_ free
int_ex_flow_1_10,1,1_ free
int_ex_flow_1_11,1,1_ free
int_ex_flow_1_12,1,1_ free
int_ex_flow_1_13,1,1_ free
int_ex_flow_1_14,1,1_ free
int_ex_flow_1_15,1,1_ free
int_ex_flow_1_16,1,1_ free
int_ex_flow_1_17,1,1_ free
int_ex_flow_1_18,1,1_ free
int_ex_flow_1_19,1,1_ free
int_ex_flow_1_20,1,1_ free
int_ex_flow_1_1,2,1_ free
int_ex_flow_1_2,2,1_ free
int_ex_flow_1_3,2,1_ free
int_ex_flow_1_4,2,1_ free
int_ex_flow_1_5,2,1_ free
int_ex_flow_1_6,2,1_ free
int_ex_flow_1_7,2,1_ free
int_ex_flow_1_8,2,1_ free
int_ex_flow_1_9,2,1_ free
int_ex_flow_1_10,2,1_ free
int_ex_flow_1_11,2,1_ free
int_ex_flow_1_12,2,1_ free
int_ex_flow_1_13,2,1_ free
int_ex_flow_1_14,2,1_ free
int_ex_flow_1_15,2,1_ free
int_ex_flow_1_16,2,1_ free
int_ex_flow_1_17,2,1_ free
int_ex_flow_1_18,2,1_ free
int_ex_flow_1_19,2,1_ free
int_ex_flow_1_20,2,1_ free
int_ex_flow_1_1,3,1_ free
int_ex_flow_1_2,3,1_ free
int_ex_flow_1_3,3,1_ free
int_ex_flow_1_4,3,1_ free
int_ex_flow_1_5,3,1_ free
int_ex_flow_1_6,3,1_ free
int_ex_flow_1_7,3,1_ free
int_ex_flow_1_8,3,1_ free
int_ex_flow_1_9,3,1_ free
int_ex_flow_1_10,3,1_ free
int_ex_flow_1_11,3,1_ free
int_ex_flow_1_12,3,1_ free
int_ex_flow_1_13,3,1_ free
int_ex_flow_1_14,3,1_ free
int_ex_flow_1_15,3,1_ free
int_ex_flow_1_16,3,1_ free
int_ex_flow_1_17,3,1_ free
int_ex_flow_1_18,3,1_ free
int_ex_flow_1_19,3,1_ free
int_ex_flow_1_20,3,1_ free
int_ex_flow_1_1,4,1_ free
int_ex_flow_1_2,4,1_ free
int_ex_flow_1_3,4,1_ free
int_ex_flow_1_4,4,1_ free
int_ex_flow_1_5,4,1_ free
int_ex_flow_1_6,4,1_ free
int_ex_flow_1_7,4,1_ free
int_ex_flow_1_8,4,1_ free
int_ex_flow_1_9,4,1_ free
int_ex_flow_1_10,4,1_ free
int_ex_flow_1_11,4,1_ free
int_ex_flow_1_12,4,1_ free
int_ex_flow_1_13,4,1_ free
int_ex_flow_1_14,4,1_ free
int_ex_flow_1_15,4,1_ free
int_ex_flow_1_16,4,1_ free
int_ex_flow_1_17,4,1_ free
int_ex_flow_1_18,4,1_ free
int_ex_flow_1_19,4,1_ free
int_ex_flow_1_20,4,1_ free
int_ex_flow_1_1,1,2_ free
int_ex_flow_1_2,1,2_ free
int_ex_flow_1_3,1,2_ free
int_ex_flow_1_4,1,2_ free
int_ex_flow_1_5,1,2_ free
int_ex_flow_1_6,1,2_ free
int_ex_flow_1_7,1,2_ free
int_ex_flow_1_8,1,2_ free
int_ex_flow_1_9,1,2_ free
int_ex_flow_1_10,1,2_ free
int_ex_flow_1_11,1,2_ free
int_ex_flow_1_12,1,2_ free
int_ex_flow_1_13,1,2_ free
int_ex_flow_1_14,1,2_ free
int_ex_flow_1_15,1,2_ free
int_ex_flow_1_16,1,2_ free
int_ex_flow_1_17,1,2_ free
int_ex_flow_1_18,1,2_ free
int_ex_flow_1_19,1,2_ free
int_ex_flow_1_20,1,2_ free
int_ex_flow_1_1,2,2_ free
int_ex_flow_1_2,2,2_ free
int_ex_flow_1_3,2,2_ free
int_ex_flow_1_4,2,2_ free
int_ex_flow_1_5,2,2_ free
int_ex_flow_1_6,2,2_ free
int_ex_flow_1_7,2,2_ free
int_ex_flow_1_8,2,2_ free
int_ex_flow_1_9,2,2_ free
int_ex_flow_1_10,2,2_ free
int_ex_flow_1_11,2,2_ free
int_ex_flow_1_12,2,2_ free
int_ex_flow_1_13,2,2_ free
int_ex_flow_1_14,2,2_ free
int_ex_flow_1_15,2,2_ free
int_ex_flow_1_16,2,2_ free
int_ex_flow_1_17,2,2_ free
int_ex_flow_1_18,2,2_ free
int_ex_flow_1_19,2,2_ free
int_ex_flow_1_20,2,2_ free
int_ex_flow_1_1,3,2_ free
int_ex_flow_1_2,3,2_ free
int_ex_flow_1_3,3,2_ free
int_ex_flow_1_4,3,2_ free
int_ex_flow_1_5,3,2_ free
int_ex_flow_1_6,3,2_ free
int_ex_flow_1_7,3,2_ free
int_ex_flow_1_8,3,2_ free
int_ex_flow_1_9,3,2_ free
int_ex_flow_1_10,3,2_ free
int_ex_flow_1_11,3,2_ free
int_ex_flow_1_12,3,2_ free
int_ex_flow_1_13,3,2_ free
int_ex_flow_1_14,3,2_ free
int_ex_flow_1_15,3,2_ free
int_ex_flow_1_16,3,2_ free
int_ex_flow_1_17,3,2_ free
int_ex_flow_1_18,3,2_ free
int_ex_flow_1_19,3,2_ free
int_ex_flow_1_20,3,2_ free
int_ex_flow_1_1,4,2_ free
int_ex_flow_1_2,4,2_ free
int_ex_flow_1_3,4,2_ free
int_ex_flow_1_4,4,2_ free
int_ex_flow_1_5,4,2_ free
int_ex_flow_1_6,4,2_ free
int_ex_flow_1_7,4,2_ free
int_ex_flow_1_8,4,2_ free
int_ex_flow_1_9,4,2_ free
int_ex_flow_1_10,4,2_ free
int_ex_flow_1_11,4,2_ free
int_ex_flow_1_12,4,2_ free
int_ex_flow_1_13,4,2_ free
int_ex_flow_1_14,4,2_ free
int_ex_flow_1_15,4,2_ free
int_ex_flow_1_16,4,2_ free
int_ex_flow_1_17,4,2_ free
int_ex_flow_1_18,4,2_ free
int_ex_flow_1_19,4,2_ free
int_ex_flow_1_20,4,2_ free
int_ex_flow_2_1,1,1_ free
int_ex_flow_2_2,1,1_ free
int_ex_flow_2_3,1,1_ free
int_ex_flow_2_4,1,1_ free
int_ex_flow_2_5,1,1_ free
int_ex_flow_2_6,1,1_ free
int_ex_flow_2_7,1,1_ free
int_ex_flow_2_8,1,1_ free
int_ex_flow_2_9,1,1_ free
int_ex_flow_2_10,1,1_ free
int_ex_flow_2_11,1,1_ free
int_ex_flow_2_12,1,1_ free
int_ex_flow_2_13,1,1_ free
int_ex_flow_2_14,1,1_ free
int_ex_flow_2_15,1,1_ free
int_ex_flow_2_16,1,1_ free
int_ex_flow_2_17,1,1_ free
int_ex_flow_2_18,1,1_ free
int_ex_flow_2_19,1,1_ free
int_ex_flow_2_20,1,1_ free
int_ex_flow_2_21,1,1_ free
int_ex_flow_2_22,1,1_ free
int_ex_flow_2_23,1,1_ free
int_ex_flow_2_24,1,1_ free
int_ex_flow_2_25,1,1_ free
int_ex_flow_2_26,1,1_ free
int_ex_flow_2_27,1,1_ free
int_ex_flow_2_28,1,1_ free
int_ex_flow_2_29,1,1_ free
int_ex_flow_2_30,1,1_ free
int_ex_flow_2_31,1,1_ free
int_ex_flow_2_32,1,1_ free
int_ex_flow_2_33,1,1_ free
int_ex_flow_2_34,1,1_ free
int_ex_flow_2_35,1,1_ free
int_ex_flow_2_36,1,1_ free
int_ex_flow_2_37,1,1_ free
int_ex_flow_2_38,1,1_ free
int_ex_flow_2_39,1,1_ free
int_ex_flow_2_40,1,1_ free
int_ex_flow_2_41,1,1_ free
int_ex_flow_2_1,2,1_ free
int_ex_flow_2_2,2,1_ free
int_ex_flow_2_3,2,1_ free
int_ex_flow_2_4,2,1_ free
int_ex_flow_2_5,2,1_ free
int_ex_flow_2_6,2,1_ free
int_ex_flow_2_7,2,1_ free
int_ex_flow_2_8,2,1_ free
int_ex_flow_2_9,2,1_ free
int_ex_flow_2_10,2,1_ free
int_ex_flow_2_11,2,1_ free
int_ex_flow_2_12,2,1_ free
int_ex_flow_2_13,2,1_ free
int_ex_flow_2_14,2,1_ free
int_ex_flow_2_15,2,1_ free
int_ex_flow_2_16,2,1_ free
int_ex_flow_2_17,2,1_ free
int_ex_flow_2_18,2,1_ free
int_ex_flow_2_19,2,1_ free
int_ex_flow_2_20,2,1_ free
int_ex_flow_2_21,2,1_ free
int_ex_flow_2_22,2,1_ free
int_ex_flow_2_23,2,1_ free
int_ex_flow_2_24,2,1_ free
int_ex_flow_2_25,2,1_ free
int_ex_flow_2_26,2,1_ free
int_ex_flow_2_27,2,1_ free
int_ex_flow_2_28,2,1_ free
int_ex_flow_2_29,2,1_ free
int_ex_flow_2_30,2,1_ free
int_ex_flow_2_31,2,1_ free
int_ex_flow_2_32,2,1_ free
int_ex_flow_2_33,2,1_ free
int_ex_flow_2_34,2,1_ free
int_ex_flow_2_35,2,1_ free
int_ex_flow_2_36,2,1_ free
int_ex_flow_2_37,2,1_ free
int_ex_flow_2_38,2,1_ free
int_ex_flow_2_39,2,1_ free
int_ex_flow_2_40,2,1_ free
int_ex_flow_2_41,2,1_ free
int_ex_flow_2_1,3,1_ free
int_ex_flow_2_2,3,1_ free
int_ex_flow_2_3,3,1_ free
int_ex_flow_2_4,3,1_ free
int_ex_flow_2_5,3,1_ free
int_ex_flow_2_6,3,1_ free
int_ex_flow_2_7,3,1_ free
int_ex_flow_2_8,3,1_ free
int_ex_flow_2_9,3,1_ free
int_ex_flow_2_10,3,1_ free
int_ex_flow_2_11,3,1_ free
int_ex_flow_2_12,3,1_ free
int_ex_flow_2_13,3,1_ free
int_ex_flow_2_14,3,1_ free
int_ex_flow_2_15,3,1_ free
int_ex_flow_2_16,3,1_ free
int_ex_flow_2_17,3,1_ free
int_ex_flow_2_18,3,1_ free
int_ex_flow_2_19,3,1_ free
int_ex_flow_2_20,3,1_ free
int_ex_flow_2_21,3,1_ free
int_ex_flow_2_22,3,1_ free
int_ex_flow_2_23,3,1_ free
int_ex_flow_2_24,3,1_ free
int_ex_flow_2_25,3,1_ free
int_ex_flow_2_26,3,1_ free
int_ex_flow_2_27,3,1_ free
int_ex_flow_2_28,3,1_ free
int_ex_flow_2_29,3,1_ free
int_ex_flow_2_30,3,1_ free
int_ex_flow_2_31,3,1_ free
int_ex_flow_2_32,3,1_ free
int_ex_flow_2_33,3,1_ free
int_ex_flow_2_34,3,1_ free
int_ex_flow_2_35,3,1_ free
int_ex_flow_2_36,3,1_ free
int_ex_flow_2_37,3,1_ free
int_ex_flow_2_38,3,1_ free
int_ex_flow_2_39,3,1_ free
int_ex_flow_2_40,3,1_ free
int_ex_flow_2_41,3,1_ free
int_ex_flow_2_1,4,1_ free
int_ex_flow_2_2,4,1_ free
int_ex_flow_2_3,4,1_ free
int_ex_flow_2_4,4,1_ free
int_ex_flow_2_5,4,1_ free
int_ex_flow_2_6,4,1_ free
int_ex_flow_2_7,4,1_ free
int_ex_flow_2_8,4,1_ free
int_ex_flow_2_9,4,1_ free
int_ex_flow_2_10,4,1_ free
int_ex_flow_2_11,4,1_ free
int_ex_flow_2_12,4,1_ free
int_ex_flow_2_13,4,1_ free
int_ex_flow_2_14,4,1_ free
int_ex_flow_2_15,4,1_ free
int_ex_flow_2_16,4,1_ free
int_ex_flow_2_17,4,1_ free
int_ex_flow_2_18,4,1_ free
int_ex_flow_2_19,4,1_ free
int_ex_flow_2_20,4,1_ free
int_ex_flow_2_21,4,1_ free
int_ex_flow_2_22,4,1_ free
int_ex_flow_2_23,4,1_ free
int_ex_flow_2_24,4,1_ free
int_ex_flow_2_25,4,1_ free
int_ex_flow_2_26,4,1_ free
int_ex_flow_2_27,4,1_ free
int_ex_flow_2_28,4,1_ free
int_ex_flow_2_29,4,1_ free
int_ex_flow_2_30,4,1_ free
int_ex_flow_2_31,4,1_ free
int_ex_flow_2_32,4,1_ free
int_ex_flow_2_33,4,1_ free
int_ex_flow_2_34,4,1_ free
int_ex_flow_2_35,4,1_ free
int_ex_flow_2_36,4,1_ free
int_ex_flow_2_37,4,1_ free
int_ex_flow_2_38,4,1_ free
int_ex_flow_2_39,4,1_ free
int_ex_flow_2_40,4,1_ free
int_ex_flow_2_41,4,1_ free
int_ex_flow_2_1,1,2_ free
int_ex_flow_2_2,1,2_ free
int_ex_flow_2_3,1,2_ free
int_ex_flow_2_4,1,2_ free
int_ex_flow_2_5,1,2_ free
int_ex_flow_2_6,1,2_ free
int_ex_flow_2_7,1,2_ free
int_ex_flow_2_8,1,2_ free
int_ex_flow_2_9,1,2_ free
int_ex_flow_2_10,1,2_ free
int_ex_flow_2_11,1,2_ free
int_ex_flow_2_12,1,2_ free
int_ex_flow_2_13,1,2_ free
int_ex_flow_2_14,1,2_ free
int_ex_flow_2_15,1,2_ free
int_ex_flow_2_16,1,2_ free
int_ex_flow_2_17,1,2_ free
int_ex_flow_2_18,1,2_ free
int_ex_flow_2_19,1,2_ free
int_ex_flow_2_20,1,2_ free
int_ex_flow_2_21,1,2_ free
int_ex_flow_2_22,1,2_ free
int_ex_flow_2_23,1,2_ free
int_ex_flow_2_24,1,2_ free
int_ex_flow_2_25,1,2_ free
int_ex_flow_2_26,1,2_ free
int_ex_flow_2_27,1,2_ free
int_ex_flow_2_28,1,2_ free
int_ex_flow_2_29,1,2_ free
int_ex_flow_2_30,1,2_ free
int_ex_flow_2_31,1,2_ free
int_ex_flow_2_32,1,2_ free
int_ex_flow_2_33,1,2_ free
int_ex_flow_2_34,1,2_ free
int_ex_flow_2_35,1,2_ free
int_ex_flow_2_36,1,2_ free
int_ex_flow_2_37,1,2_ free
int_ex_flow_2_38,1,2_ free
int_ex_flow_2_39,1,2_ free
int_ex_flow_2_40,1,2_ free
int_ex_flow_2_41,1,2_ free
int_ex_flow_2_1,2,2_ free
int_ex_flow_2_2,2,2_ free
int_ex_flow_2_3,2,2_ free
int_ex_flow_2_4,2,2_ free
int_ex_flow_2_5,2,2_ free
int_ex_flow_2_6,2,2_ free
int_ex_flow_2_7,2,2_ free
int_ex_flow_2_8,2,2_ free
int_ex_flow_2_9,2,2_ free
int_ex_flow_2_10,2,2_ free
int_ex_flow_2_11,2,2_ free
int_ex_flow_2_12,2,2_ free
int_ex_flow_2_13,2,2_ free
int_ex_flow_2_14,2,2_ free
int_ex_flow_2_15,2,2_ free
int_ex_flow_2_16,2,2_ free
int_ex_flow_2_17,2,2_ free
int_ex_flow_2_18,2,2_ free
int_ex_flow_2_19,2,2_ free
int_ex_flow_2_20,2,2_ free
int_ex_flow_2_21,2,2_ free
int_ex_flow_2_22,2,2_ free
int_ex_flow_2_23,2,2_ free
int_ex_flow_2_24,2,2_ free
int_ex_flow_2_25,2,2_ free
int_ex_flow_2_26,2,2_ free
int_ex_flow_2_27,2,2_ free
int_ex_flow_2_28,2,2_ free
int_ex_flow_2_29,2,2_ free
int_ex_flow_2_30,2,2_ free
int_ex_flow_2_31,2,2_ free
int_ex_flow_2_32,2,2_ free
int_ex_flow_2_33,2,2_ free
int_ex_flow_2_34,2,2_ free
int_ex_flow_2_35,2,2_ free
int_ex_flow_2_36,2,2_ free
int_ex_flow_2_37,2,2_ free
int_ex_flow_2_38,2,2_ free
int_ex_flow_2_39,2,2_ free
int_ex_flow_2_40,2,2_ free
int_ex_flow_2_41,2,2_ free
int_ex_flow_2_1,3,2_ free
int_ex_flow_2_2,3,2_ free
int_ex_flow_2_3,3,2_ free
int_ex_flow_2_4,3,2_ free
int_ex_flow_2_5,3,2_ free
int_ex_flow_2_6,3,2_ free
int_ex_flow_2_7,3,2_ free
int_ex_flow_2_8,3,2_ free
int_ex_flow_2_9,3,2_ free
int_ex_flow_2_10,3,2_ free
int_ex_flow_2_11,3,2_ free
int_ex_flow_2_12,3,2_ free
int_ex_flow_2_13,3,2_ free
int_ex_flow_2_14,3,2_ free
int_ex_flow_2_15,3,2_ free
int_ex_flow_2_16,3,2_ free
int_ex_flow_2_17,3,2_ free
int_ex_flow_2_18,3,2_ free
int_ex_flow_2_19,3,2_ free
int_ex_flow_2_20,3,2_ free
int_ex_flow_2_21,3,2_ free
int_ex_flow_2_22,3,2_ free
int_ex_flow_2_23,3,2_ free
int_ex_flow_2_24,3,2_ free
int_ex_flow_2_25,3,2_ free
int_ex_flow_2_26,3,2_ free
int_ex_flow_2_27,3,2_ free
int_ex_flow_2_28,3,2_ free
int_ex_flow_2_29,3,2_ free
int_ex_flow_2_30,3,2_ free
int_ex_flow_2_31,3,2_ free
int_ex_flow_2_32,3,2_ free
int_ex_flow_2_33,3,2_ free
int_ex_flow_2_34,3,2_ free
int_ex_flow_2_35,3,2_ free
int_ex_flow_2_36,3,2_ free
int_ex_flow_2_37,3,2_ free
int_ex_flow_2_38,3,2_ free
int_ex_flow_2_39,3,2_ free
int_ex_flow_2_40,3,2_ free
int_ex_flow_2_41,3,2_ free
int_ex_flow_2_1,4,2_ free
int_ex_flow_2_2,4,2_ free
int_ex_flow_2_3,4,2_ free
int_ex_flow_2_4,4,2_ free
int_ex_flow_2_5,4,2_ free
int_ex_flow_2_6,4,2_ free
int_ex_flow_2_7,4,2_ free
int_ex_flow_2_8,4,2_ free
int_ex_flow_2_9,4,2_ free
int_ex_flow_2_10,4,2_ free
int_ex_flow_2_11,4,2_ free
int_ex_flow_2_12,4,2_ free
int_ex_flow_2_13,4,2_ free
int_ex_flow_2_14,4,2_ free
int_ex_flow_2_15,4,2_ free
int_ex_flow_2_16,4,2_ free
int_ex_flow_2_17,4,2_ free
int_ex_flow_2_18,4,2_ free
int_ex_flow_2_19,4,2_ free
int_ex_flow_2_20,4,2_ free
int_ex_flow_2_21,4,2_ free
int_ex_flow_2_22,4,2_ free
int_ex_flow_2_23,4,2_ free
int_ex_flow_2_24,4,2_ free
int_ex_flow_2_25,4,2_ free
int_ex_flow_2_26,4,2_ free
int_ex_flow_2_27,4,2_ free
int_ex_flow_2_28,4,2_ free
int_ex_flow_2_29,4,2_ free
int_ex_flow_2_30,4,2_ free
int_ex_flow_2_31,4,2_ free
int_ex_flow_2_32,4,2_ free
int_ex_flow_2_33,4,2_ free
int_ex_flow_2_34,4,2_ free
int_ex_flow_2_35,4,2_ free
int_ex_flow_2_36,4,2_ free
int_ex_flow_2_37,4,2_ free
int_ex_flow_2_38,4,2_ free
int_ex_flow_2_39,4,2_ free
int_ex_flow_2_40,4,2_ free
int_ex_flow_2_41,4,2_ free
int_ex_flow_3_1,1,1_ free
int_ex_flow_3_2,1,1_ free
int_ex_flow_3_3,1,1_ free
int_ex_flow_3_4,1,1_ free
int_ex_flow_3_5,1,1_ free
int_ex_flow_3_6,1,1_ free
int_ex_flow_3_7,1,1_ free
int_ex_flow_3_1,2,1_ free
int_ex_flow_3_2,2,1_ free
int_ex_flow_3_3,2,1_ free
int_ex_flow_3_4,2,1_ free
int_ex_flow_3_5,2,1_ free
int_ex_flow_3_6,2,1_ free
int_ex_flow_3_7,2,1_ free
int_ex_flow_3_1,3,1_ free
int_ex_flow_3_2,3,1_ free
int_ex_flow_3_3,3,1_ free
int_ex_flow_3_4,3,1_ free
int_ex_flow_3_5,3,1_ free
int_ex_flow_3_6,3,1_ free
int_ex_flow_3_7,3,1_ free
int_ex_flow_3_1,4,1_ free
int_ex_flow_3_2,4,1_ free
int_ex_flow_3_3,4,1_ free
int_ex_flow_3_4,4,1_ free
int_ex_flow_3_5,4,1_ free
int_ex_flow_3_6,4,1_ free
int_ex_flow_3_7,4,1_ free
int_ex_flow_3_1,1,2_ free
int_ex_flow_3_2,1,2_ free
int_ex_flow_3_3,1,2_ free
int_ex_flow_3_4,1,2_ free
int_ex_flow_3_5,1,2_ free
int_ex_flow_3_6,1,2_ free
int_ex_flow_3_7,1,2_ free
int_ex_flow_3_1,2,2_ free
int_ex_flow_3_2,2,2_ free
int_ex_flow_3_3,2,2_ free
int_ex_flow_3_4,2,2_ free
int_ex_flow_3_5,2,2_ free
int_ex_flow_3_6,2,2_ free
int_ex_flow_3_7,2,2_ free
int_ex_flow_3_1,3,2_ free
int_ex_flow_3_2,3,2_ free
int_ex_flow_3_3,3,2_ free
int_ex_flow_3_4,3,2_ free
int_ex_flow_3_5,3,2_ free
int_ex_flow_3_6,3,2_ free
int_ex_flow_3_7,3,2_ free
int_ex_flow_3_1,4,2_ free
int_ex_flow_3_2,4,2_ free
int_ex_flow_3_3,4,2_ free
int_ex_flow_3_4,4,2_ free
int_ex_flow_3_5,4,2_ free
int_ex_flow_3_6,4,2_ free
int_ex_flow_3_7,4,2_ free
Binary
shared_line_decision_var_1_
shared_line_decision_var_2_
shared_line_decision_var_3_
shared_line_decision_var_4_
shared_line_decision_var_5_
shared_line_decision_var_6_
int_line_decision_var_1_1_
int_line_decision_var_1_2_
int_line_decision_var_1_3_
int_line_decision_var_1_4_
int_line_decision_var_1_5_
int_line_decision_var_1_6_
int_line_decision_var_1_7_
int_line_decision_var_1_8_
int_line_decision_var_1_9_
int_line_decision_var_1_10_
int_line_decision_var_2_1_
int_line_decision_var_2_2_
int_line_decision_var_2_3_
int_line_decision_var_2_4_
int_line_decision_var_2_5_
int_line_decision_var_2_6_
int_line_decision_var_2_7_
int_line_decision_var_2_8_
int_line_decision_var_2_9_
int_line_decision_var_2_10_
int_line_decision_var_2_11_
int_line_decision_var_2_12_
int_line_decision_var_2_13_
int_line_decision_var_2_14_
int_line_decision_var_2_15_
int_line_decision_var_2_16_
int_line_decision_var_2_17_
int_line_decision_var_2_18_
int_line_decision_var_3_1_
int_line_decision_var_3_2_
End
